# vtk DataFile Version 2.0
Really cool data
ASCII
DATASET POLYDATA
POINTS 200 float
0.0 0.0 0.0
0.125 0.0 0.0
0.125 0.02592592592592593 0.0
0.175 0.02592592592592593 0.0
0.175 0.0 0.0
0.3 0.0 0.0
0.3 0.1 0.0
0.175 0.1 0.0
0.175 0.07407407407407407 0.0
0.125 0.07407407407407407 0.0
0.125 0.1 0.0
0.0 0.1 0.0
0.01562500001914041 0.0 0.0
0.03125000004302709 0.0 0.0
0.04687500009029187 0.0 0.0
0.06250000012942511 0.0 0.0
0.078125000069625 0.0 0.0
0.09374999998136457 0.0 0.0
0.1093749999689982 0.0 0.0
0.125 0.01296296299221953 0.0
0.1374999999728949 0.02592592592592593 0.0
0.1500000000514996 0.02592592592592593 0.0
0.1624999999674739 0.02592592592592593 0.0
0.175 0.01296296292893372 0.0
0.1906249999454511 0.0 0.0
0.2062499999464675 0.0 0.0
0.2218749999813653 0.0 0.0
0.2375000000284603 0.0 0.0
0.253125000025411 0.0 0.0
0.2687499999464675 0.0 0.0
0.2843749999108921 0.0 0.0
0.2999999999999999 0.01250000000785633 0.0
0.3 0.02500000002464271 0.0
0.3 0.03750000005532045 0.0
0.2999999999999999 0.05000000007786666 0.0
0.3 0.06250000001503192 0.0
0.2999999999999999 0.0749999999440657 0.0
0.3 0.08749999994628305 0.0
0.2843749999369807 0.1 0.0
0.2687499999742503 0.1 0.0
0.253124999894968 0.1 0.0
0.2374999998970008 0.1 0.0
0.2218749999180072 0.09999999999999999 0.0
0.2062499998726061 0.09999999999999999 0.0
0.1906249999261387 0.1 0.0
0.175 0.08703703697808356 0.0
0.1624999999105533 0.07407407407407407 0.0
0.1499999998834483 0.07407407407407408 0.0
0.1374999998590537 0.07407407407407406 0.0
0.125 0.08703703704787906 0.0
0.1093749999923767 0.1 0.0
0.09374999993596433 0.1 0.0
0.07812499987955196 0.1 0.0
0.06249999985295514 0.1 0.0
0.04687499989276568 0.1 0.0
0.03124999993257619 0.09999999999999999 0.0
0.0156249999764525 0.09999999999999999 0.0
0.0 0.08749999998398685 0.0
0.0 0.07499999993815812 0.0
0.0 0.06249999990588191 0.0
0.0 0.04999999987631621 0.0
0.0 0.03749999991857893 0.0
0.0 0.0249999999459339 0.0
0.0 0.01249999997735459 0.0
0.2900414957455686 0.03885356728540032 0.0
0.009926003414719291 0.06131243417622059 0.0
0.07373267228512076 0.01327421504120387 0.0
0.2265666439500201 0.0860786288634502 0.0
0.2503672498586816 0.01227349576303974 0.0
0.04926541249070039 0.08816645291920894 0.0
0.2197450739512183 0.01341491365429352 0.0
0.07774720145969659 0.08753373490705624 0.0
0.2568886673386941 0.08742569676526744 0.0
0.04276834462077986 0.01269079859821605 0.0
0.1314804564254726 0.06419635773891286 0.0
0.1177845484838126 0.06016422536049872 0.0
0.1552334270746487 0.03803191399498747 0.0
0.2878358787021158 0.06262755321132374 0.0
0.01214698883339345 0.0375180466545626 0.0
0.1759799262296463 0.06296693646110164 0.0
0.1019358100301172 0.01595013506953693 0.0
0.275005357248442 0.01576300452606958 0.0
0.02490097632894558 0.08449353206723023 0.0
0.1888298605362316 0.07602244941851014 0.0
0.1901468489863021 0.06408647569352306 0.0
0.1905079483434425 0.05170424641732761 0.0
0.2049602601174869 0.0517819164692346 0.0
0.2071165083557511 0.06606819229790745 0.0
0.2155879836884046 0.051756004110563 0.0
0.107684316000298 0.07822044491364358 0.0
0.103891899814296 0.06256110271315911 0.0
0.1142043379044689 0.04620233246649812 0.0
0.0999137738274998 0.0498059859110665 0.0
0.1318385141195761 0.03676633227584409 0.0
0.1899717757290331 0.03938361932471661 0.0
0.1876350931999473 0.0192525499887126 0.0
0.1065608901283153 0.03821174599682148 0.0
0.09755008440004921 0.03862396639956892 0.0
0.08613866944406526 0.05067936010095953 0.0
0.0845138101387056 0.03865650666956048 0.0
0.07156624795147463 0.05084253377953977 0.0
0.07000241512791587 0.03856276558742266 0.0
0.05679454563590743 0.05095061673480368 0.0
0.05497147790296286 0.03841228286277341 0.0
0.04201342133689876 0.05160092480773554 0.0
0.2207385270664209 0.05970532013298322 0.0
0.2316376285999439 0.05456391921399018 0.0
0.2362706772613743 0.062450838402947 0.0
0.2438899275603862 0.05133897690024734 0.0
0.2461455628575256 0.0626787450625102 0.0
0.2580264103732307 0.04953808950407615 0.0
0.2221539155409126 0.04253418311883077 0.0
0.04008674822043985 0.03837096774224202 0.0
0.2541118747593538 0.03655491056485032 0.0
0.267805900546792 0.03288031457745461 0.0
0.2599471392462058 0.06238776063751117 0.0
0.07442409803336772 0.06307485808526996 0.0
0.04562565426665262 0.06464752805314358 0.0
0.03204710692541901 0.06776714356502052 0.0
0.08548117869483311 0.02657896669734692 0.0
0.2446548665164438 0.07419316287592202 0.0
0.055672978659543 0.02581015923464285 0.0
0.263423423782745 0.02071534288136466 0.0
0.0910984793558843 0.07568513282226863 0.0
0.2165080566376103 0.07413796100176391 0.0
0.03637394137718331 0.0798126311080681 0.0
0.176320869209751 0.03885994860370762 0.0
0.1983690369111836 0.08811857503876282 0.0
0.02516936524389779 0.05395598736837266 0.0
0.06300423275832796 0.08775663073255975 0.0
0.06212767143286271 0.07565789314721816 0.0
0.2360186100122387 0.01288508876984732 0.0
0.2364774742676368 0.02591421457956701 0.0
0.2747779375645154 0.04656436339600039 0.0
0.2716584228520665 0.08769203588213585 0.0
0.02816314655146989 0.01237257622509766 0.0
0.1765864932733832 0.05108548579906753 0.0
0.1638127656592067 0.05032324284847451 0.0
0.2000709125518474 0.01386557934312484 0.0
0.1415804857039811 0.0401635740894891 0.0
0.1367067828809643 0.04721588524724289 0.0
0.1285710417314926 0.04699369951865093 0.0
0.1503066953013426 0.04851586378879728 0.0
0.1507238650229161 0.06249411743447737 0.0
0.1131820633524214 0.02029294078642671 0.0
0.1205133746356747 0.0342912428958235 0.0
0.2887323449587333 0.02111020016401828 0.0
0.2814805711580479 0.02812854114747049 0.0
0.01120171734396879 0.07901984219122145 0.0
0.01842512107520951 0.07215983790734685 0.0
0.09841098928542646 0.02785028775709425 0.0
0.2870908239147411 0.07525638384269925 0.0
0.01119057020338087 0.05030859432104404 0.0
0.01285154740720656 0.0248226640090755 0.0
0.2887894933034791 0.04988133192030388 0.0
0.1639804050740267 0.03818583992470213 0.0
0.1022575780503988 0.08828714275133412 0.0
0.08902830623289539 0.06315095637797676 0.0
0.2046645000730668 0.03993062535087757 0.0
0.04079864498583553 0.02540486389558566 0.0
0.0887983575481533 0.01379103762218508 0.0
0.2903768753775174 0.03122641719288009 0.0
0.009576541352205065 0.06892035994881364 0.0
0.2590845127721439 0.07491710095392048 0.0
0.0585857609391875 0.0129895044599303 0.0
0.07118140351690394 0.02606514216695997 0.0
0.2202790918868998 0.02698420085363187 0.0
0.02584874457143335 0.0383039204185868 0.0
0.2014149440231459 0.07943241944371379 0.0
0.2604025875181886 0.01189715598901444 0.0
0.2740926743941934 0.06209615057112035 0.0
0.2394716178601088 0.03900825389915287 0.0
0.2132069628905713 0.08373615572933653 0.0
0.2413248504181239 0.08681985665296593 0.0
0.2825740239143782 0.03799365020169045 0.0
0.1394049539883684 0.06359672996620816 0.0
0.1885947491190392 0.0879280772360895 0.0
0.2287104170858038 0.07114470735532644 0.0
0.03941559547447293 0.08844996171596328 0.0
0.2038403483283299 0.02758929414671598 0.0
0.01736168668590784 0.06232946064272503 0.0
0.05979261678240957 0.0635007529214077 0.0
0.2731817988221694 0.0751001593238272 0.0
0.02668960378107077 0.02511674068803217 0.0
0.109610589002393 0.0306824445605571 0.0
0.07635877809760576 0.07541307262363998 0.0
0.1890111477719049 0.02751306466722532 0.0
0.1387293414565577 0.05388482218371737 0.0
0.04852815275324425 0.07689020145381609 0.0
0.2509477186738268 0.024059261431739 0.0
0.1163316492278619 0.0120050218735224 0.0
0.1631023760693236 0.06232313026080775 0.0
0.2858068070445349 0.08763237097935965 0.0
0.01413980066016551 0.0124018530311557 0.0
0.287173922421963 0.01261714372993478 0.0
0.01278933338571432 0.08747154319291922 0.0
0.1888645513834998 0.008127028701943921 0.0
0.1152304940715137 0.08808603011991419 0.0
0.1290983614584116 0.05684329359682926 0.0
0.09189498810273702 0.08794531921391127 0.0
POLYGONS 167 835
4 9 49 197 89
4 158 179 166 111
4 22 3 126 155
4 142 76 155 137
4 45 176 44 7
4 198 75 91 141
4 160 119 165 66
4 80 150 119 160
4 163 72 173 120
4 166 132 171 111
4 164 66 165 121
4 45 8 83 176
4 173 67 177 120
4 50 51 199 156
4 154 133 174 64
4 80 144 184 150
4 169 122 189 68
4 152 128 180 65
4 115 170 182 163
4 181 116 185 130
4 172 124 177 67
4 79 136 85 84
4 117 181 130 188
4 187 175 74 198
4 108 110 115 109
4 94 85 136 126
4 112 103 102 104
4 134 39 40 72
4 135 13 14 73
4 26 70 138 25
4 168 127 176 83
4 145 184 144 2
4 138 70 166 179
4 131 27 28 68
4 129 53 54 69
4 71 52 53 129
4 70 26 27 131
4 133 110 113 114
4 109 107 106 108
4 128 104 117 118
4 142 139 21 76
4 21 139 93 20
4 155 76 21 22
4 178 125 188 69
4 103 101 100 102
4 112 167 183 159
4 100 98 157 116
4 139 140 141 93
4 168 172 43 127
4 137 155 126 136
4 104 128 167 112
4 111 106 105 88
4 198 74 9 75
4 20 93 145 2
4 101 99 98 100
4 66 16 17 160
4 99 119 150 97
4 75 90 92 91
4 105 87 86 88
4 99 97 92 98
4 91 145 93 141
4 16 66 164 15
4 91 92 97 96
4 52 71 199 51
4 85 86 87 84
4 110 108 171 113
4 113 171 132 189
4 9 89 90 75
4 18 80 160 17
4 43 44 176 127
4 42 67 173 41
4 79 84 83 8
4 103 121 165 101
4 110 133 170 115
4 111 88 86 158
4 85 94 158 86
4 143 47 48 175
4 60 61 78 152
4 34 35 77 154
4 33 34 154 64
4 59 60 152 65
4 103 112 159 121
4 104 102 181 117
4 35 36 151 77
4 61 62 153 78
4 89 123 157 90
4 98 92 90 157
4 172 168 87 124
4 25 138 196 24
4 32 33 64 161
4 132 166 70 131
4 143 191 46 47
4 58 59 65 162
4 109 120 177 107
4 136 79 191 137
4 147 146 32 161
4 13 135 193 12
4 39 134 192 38
4 29 30 194 81
4 55 56 195 82
4 149 148 58 162
4 3 186 94 126
4 142 137 191 143
4 87 105 177 124
4 55 82 125 178
4 73 14 15 164
4 18 190 144 80
4 119 99 101 165
4 147 81 194 146
4 149 82 195 148
4 68 28 29 169
4 147 174 133 114
4 64 174 147 161
4 29 81 122 169
4 111 171 108 106
4 83 84 87 168
4 18 1 19 190
4 50 197 49 10
4 24 196 23 4
4 128 118 149 180
4 128 152 78 167
4 38 192 37 6
4 12 193 63 0
4 56 11 57 195
4 30 5 31 194
4 67 42 43 172
4 72 40 41 173
4 131 68 189 132
4 164 121 159 73
4 133 154 77 170
4 9 74 175 48
4 69 54 55 178
4 106 107 177 105
4 71 129 130 185
4 65 180 149 162
4 116 181 102 100
4 129 69 188 130
4 97 150 184 96
4 115 163 120 109
4 192 134 182 151
4 193 135 183 153
4 139 142 187 140
4 158 94 186 179
4 91 96 184 145
4 23 95 186 3
4 8 46 191 79
4 73 159 183 135
4 118 117 188 125
4 170 77 151 182
4 185 123 199 71
4 167 78 153 183
4 114 113 189 122
4 187 198 141 140
4 72 163 182 134
4 114 122 81 147
4 2 144 190 19
4 118 125 82 149
4 36 37 192 151
4 62 63 193 153
4 89 197 50 156
4 32 146 194 31
4 58 148 195 57
4 138 95 23 196
4 157 123 185 116
4 89 156 199 123
4 138 179 186 95
4 142 143 175 187
CELL_DATA 167
SCALARS Von_mises double 1
LOOKUP_TABLE default
10988609.529830253 13158959.757087234 22556602.23772947 18872438.968956146 302146.2303682961 15761400.492351795 10265604.69609679 10866315.455663668 9964850.391353453 11668880.4274548 10032807.435847938 10616504.45728692 10155582.384028442 4326265.560457979 10130736.600524256 12251177.866488066 9938463.51147879 9172603.323109351 10227989.373787181 11384628.628118832 10440170.336260132 15805651.826946443 10687692.068365516 17980069.994125012 10905312.044059051 15711004.061165612 11009792.183357915 9841212.99213659 9477176.650747761 7270898.930213358 10086937.9583282 15453970.74354587 10492950.197863877 9392332.555063644 9053684.553105488 8307885.917393503 8567372.904773204 10436191.739060862 11579931.926744869 10289947.430665731 20162011.558829803 20808643.80164318 20983228.43255294 9873358.463069703 11975418.691180812 10098221.352109471 13359393.626717325 17911084.01907435 8192382.142016021 16204423.424796972 10152643.126196692 13053527.082703175 17467283.059143137 22861967.38083568 13262508.7875425 7146901.478594225 13521427.775610529 15700664.950221714 13976572.917224843 14641571.431384057 15933751.03549209 8443111.033769595 15779849.068225212 6839278.863661717 15144384.979447983 11017392.117812036 10698317.608845051 14790252.832662903 5412489.120390758 4018664.9706932902 8695858.235601561 15336773.13586246 11271464.076696161 10410724.615934445 14078562.07321601 15315617.195720684 21054172.61896606 8555139.70178805 10049760.03213297 10048428.17021773 8523375.993886879 10619276.627839398 11082522.010261925 10027743.275908947 8723159.815685647 13293846.76418303 14838706.578836953 11431995.427682078 3632679.588687592 10021149.678828856 10254867.33553686 21052054.845237244 8591559.434980022 11006162.586766366 16601035.487534612 10024556.996922746 9802991.012235977 9978282.667541765 9990079.963291606 9865571.075925896 8933208.288197445 15158721.622099357 18993472.279798597 12678264.891954271 9833111.13558028 9164701.415026562 6410903.350494778 12260946.57167657 9996294.481796285 9760394.03522406 9798892.47669517 10159529.43296673 10066165.977562515 9908205.763396354 12041676.64250877 13805154.921608642 673523.095225491 481688.2789209337 507278.5451180563 9650476.382309768 9310763.645737931 10000489.265923617 10559930.901083302 10569581.712357959 10003653.546637265 7550782.741636009 9471523.726705238 10004572.905881396 9939938.818417735 10158348.237745086 24780784.667147808 9353655.380900132 12144785.573895017 9911665.03222683 9115266.951533575 12068543.38385648 9857934.114488194 14853839.377795205 10512673.252811512 9997676.677708285 9857539.83886731 18628376.594059687 14439240.7959566 15736326.172310606 13179146.069346476 22934685.904365882 9941853.13067954 10236185.296779575 10093594.395987334 10088692.169651208 9471143.017323561 10254842.189856691 16779322.23832789 9977803.443844128 10060140.12068358 10236420.881144447 9900376.52424343 9999165.282466713 9152970.556955013 5896301.083993786 9988708.131825183 9122784.575998688 5646111.973249172 12320579.34164288 10432452.931619827 12105163.214219112 19449818.614172254
SCALARS Stress double 1
LOOKUP_TABLE default
7582561.120303289 3201153.0978993205 -5075426.554160106
12035572.866160454 -1543151.2904764686 -1565160.4781028333
23244817.010987364 4009043.551719143 -3898539.9055742263
20088222.074865457 2914910.0072544157 -947091.2858933164
318492.94552116346 281826.41765481 -7920.108910010905
16780121.219576433 2306109.803192734 -275642.85798478866
9368212.329114353 -851348.819784716 1724222.1637907065
9458532.35559547 -885875.2116754919 2546181.652123758
9749396.761862084 -340757.13377121097 519363.1295679214
10806841.33660963 -1346379.6084403787 -1002014.9530316847
9580566.546805046 -597253.9756066976 964576.922286633
7410448.130227847 3268185.703372668 4876238.586036767
9665133.14564849 -626509.2968376105 1044548.5732649713
3660009.2410704265 42327.52840033353 -1350806.3740250715
10049566.303015454 -160122.43256650912 -32868.3962177936
10534776.036596287 -541410.7925374324 3322302.709749656
9801653.936396856 -231314.85853765236 -355838.1292096988
9850563.210696552 1572631.2349295286 -200989.66880703438
10052387.47586839 -330007.69754710677 212133.87212227806
10637995.3293771 -1135227.5851980557 -1012840.3877252508
9604051.71162659 -842591.2530937552 1628608.545585423
16485512.857714627 1538104.8879770546 587984.3403871829
10307239.54670227 -636134.5038977314 -584840.9619871622
19095048.062169556 3287357.668756789 -1882160.8802285166
10483169.902971853 -792158.2901274343 179939.67660796767
16411381.762271512 1529661.7800486502 -297878.91339544614
10694044.791233828 -599663.8942211382 163809.43531498377
9817584.494298467 -44085.37913344522 99586.47607181795
9472821.046944903 -6670.765730954308 80214.73868178338
6755770.665578692 -271674.8467436477 -1331209.1978003415
7928390.324559637 90197.98764583576 3632902.1186998715
14904083.803642401 1411970.3989439323 3451761.0221935892
9228699.207789896 -839396.9713765102 -2343927.2846137243
9326456.14531644 -95229.27519664472 -334617.353938941
9005294.521365717 -77103.4730380627 -240548.08370265117
8175878.653627294 -141871.69263731348 -576172.2361203211
8389016.976317642 -168749.9389658881 -725752.4867010019
10183055.579878215 -483710.0062285292 -141251.34035870465
10941508.160963489 -1154465.4927940834 371411.00621145894
10308537.55533938 52545.58325416834 -228019.49919923043
20789375.6982552 1320656.0425925595 81752.53303729506
21246398.315156907 1160873.747190429 1278928.4143195327
21334985.209306583 869255.0239166748 -983907.2370131891
9785559.44412339 -136106.48659861405 -353850.54037072085
11260921.510786809 -1303681.6956498406 272063.9285455647
10195245.606164573 245447.10911382665 397152.69252845785
12294672.685822489 -1841908.0031108914 -652211.7535731
19361292.415402282 3958968.808428259 1519276.7446995962
7175927.080224858 -408769.6613461898 2042939.2046471515
17572932.317504756 3386738.6820599465 -778956.3596803269
10310043.760669554 325175.43251830374 93084.15230792532
12043739.502865 -1821325.4045180983 173313.9106603774
18459423.146017045 4584125.601250405 -3052964.749466258
23495667.870112944 4430124.25126878 4285085.413742296
12233245.877145868 -1823716.2423418523 449416.10772265407
6792118.304376066 -201119.0143515137 1086102.617531019
12245072.738282492 -1620551.191334141 1863442.0970783604
15626796.54544685 -119966.56185073442 -376397.2086641682
12782452.159641663 -1987348.2937159024 931087.1007359546
13621669.861381281 -1791149.4409578028 637458.8851814637
17065854.78769961 2915063.7669737707 1138929.4102696113
8310886.599496661 -155901.2833781266 546291.9737765823
15215426.774566434 -963490.8091798373 797116.9486253493
6493363.085326419 -184927.2341889648 -1060970.2256505818
14440312.809020067 -1143332.1056466817 1002077.9792418965
10535014.956737798 -897362.1500827789 -214014.35917869612
10240674.384365682 -771542.6663791207 -601717.6821520692
14615983.599702632 777652.1504995944 -2301159.8871087898
4562878.011199018 -29153.524359874544 1667464.025602111
3100686.758907984 520678.07674720156 1620572.2989557902
8557628.177781625 -144287.8015137448 613560.6731496623
15457843.134118408 1775439.507789993 2618140.295554166
10638662.716422085 -1029198.8434900787 786597.8250242801
10186853.831788596 -433083.531569409 62918.095511465704
12985095.7805394 -1943498.1129620075 -439508.64929599606
14737401.89619878 -1031370.8987714389 -609278.8266195608
21307355.950999677 568211.9241874436 -594136.9034418273
9463487.661953151 2308350.4648542437 223144.84398387148
10006925.667568117 -85090.17217267712 11314.030386203927
10005654.106876593 -84990.92508166267 -7774.523179362598
9443935.79984205 2348466.062543838 -202883.23200018067
10357222.073711175 -453435.464299649 445365.5780268696
10709543.411632624 -696744.8265008375 -245425.9581485665
9999864.458927788 -55375.71418699664 22582.476258769195
9548760.18119831 2244761.9192911405 660916.8704288388
11887786.618726967 -1231183.6000338243 -2533444.96121554
13874317.516765192 -1679690.2528090929 -722175.2174578386
10084904.476445569 -1231896.4209069572 2239352.1859343494
2992647.6941785715 300833.5649956557 -1297460.187363875
10001565.063321825 -38945.845495843336 -19157.096838352212
9590509.720441746 -731096.9384408887 -1370928.194505831
21323164.985938087 665173.8523752588 866564.8146535995
9493975.992124304 2485547.842157007 -605281.4361449837
10424227.587214492 -939992.6032077505 772185.4647839782
17925459.2960331 3381618.1899689888 1073002.9389411863
9995438.7640623 -57639.27100475992 -34131.16434328743
9821206.96118178 52905.771319337386 230453.2639120573
9968096.82310985 -20191.718718390614 22286.06258764271
9975925.860275341 -28042.33073222428 -26244.482615225865
9894980.337194446 86959.35269751919 -300973.9394789664
9626216.438883157 1890601.3928277916 -766622.8913329486
15475119.08940846 1754004.7669864004 -2188944.213909384
20172005.125916738 2734945.342966262 714517.0611145543
11562971.496456577 -1540115.2247471502 1511712.8797256157
9841404.980123322 28187.474993069685 -194450.03205982182
9112051.987026412 -89672.23307683792 213792.30836180196
4797964.907727902 693413.745506545 2641045.6709805876
11241542.386655306 -1470371.152942262 1325054.0410638792
9956845.642767768 -77371.36436531988 -59908.68803929715
10180679.175736247 1213957.0196481524 -913651.747692646
9771993.263120055 -47784.85229015327 -138087.880958114
10036211.70289338 -239742.7766825733 -94704.96999625351
10003032.786510943 -124291.19866307684 -52584.289344539175
9869665.274682319 -72117.21227308446 -122848.38561701207
11301545.060089525 -1358108.1601279285 -167209.7233418505
12404244.854998019 -988095.5741522979 2797862.2602078523
-337386.3162547229 276118.06010061543 -238330.4394768742
-123118.36362009658 362485.8041710841 116677.40329458936
529953.4077313934 198648.85450654922 -118735.24885488549
10060379.908553654 944699.8903458461 -421122.47415581584
9868598.377142183 1248927.1653567518 148803.30451540503
10000365.716740776 -236.18406304697788 -6030.657769470214
11047734.541164016 1894301.0150950192 1505441.3044755098
11065205.518483926 1961167.8527793023 -1541842.016160812
10003363.016705684 -564.9288060476778 7328.712557583404
7069691.123766934 -336922.1305960375 1229950.6098157514
9414662.044559052 -89127.6718319507 274984.6306475407
9695761.641738461 -449133.4525788658 -713506.2382180112
9758079.848539712 -288911.3771615735 475945.1341150452
10045258.528798068 -222344.64405425763 24989.57215935493
25065954.012297496 2188484.100135755 -3456984.10598193
9350970.563652026 -1650.6232658512854 -107673.6554400813
11318367.15030527 -1381653.457765545 783869.5256959449
9368669.456534525 -634615.7783506244 -1172020.1477029955
9746710.985660447 1560266.9442827648 -536269.3939642506
11306504.504815873 -1366377.0087128098 -406923.97175934305
9611468.990764318 -367311.1955399711 -614603.1686934453
13853587.785359668 -1142542.882610901 1964766.9389590905
10173181.663354512 -594825.2003605126 453722.3543730463
9956423.806227533 -80270.0990926008 76414.5021918221
10167382.492226409 838508.2916191136 734339.4538188594
19832893.864785474 2733139.2999079097 369119.0857125991
13378768.497928092 -1053145.2452153782 -2183371.010197633
15810687.893074265 381307.4958476643 1085886.4506153655
10521951.633315133 3022735.6388839846 -5343113.087374048
23578947.9193911 3982080.368106861 4002887.8783082166
9955052.079039091 65870.44007798145 359993.76021978125
10147305.49166747 -129963.75216235987 -398333.2841857391
10010906.51991217 -161296.78502470962 84960.36445087288
9078962.749055415 -788478.1235959216 -1964169.360593591
9952050.060503552 1164140.8359313707 544552.9171135336
10026165.809306756 -413427.2632438042 -327503.2365180689
18346316.58320767 3815065.119219764 -363314.925482739
9884408.747647095 -169526.13268922953 224068.86951154165
9964776.360035667 -181604.3404572296 -149470.80776388923
6204857.16990505 4078628.272235281 4998538.361437522
10048167.894474672 374557.41160893184 -474376.71022583876
9991044.525750028 -16171.377364624303 12976.463687082109
9808344.94369715 2121489.4056007075 1137368.6104909927
4574934.839929404 360271.61367392103 -2262355.7932033013
9988847.205375997 293.35243859533284 -7113.7677178795275
9808937.387700882 2297058.9651486594 -1192360.8821540752
3672494.316773571 1382093.9847778978 -2680604.063099584
11202771.945522858 -1434616.1057267876 -1649724.7869146091
8982151.213948248 -511570.03599216545 -2786893.7558208383
10452902.77467326 -474031.3391217582 -3270682.43723203
20481086.631125037 2317950.1421426972 -554310.1836055972
SCALARS Strain double 1
LOOKUP_TABLE default
3.183757303333411e-05 4.4537728933092935e-06 -6.344283192700132e-05
6.0089030063958633e-05 -2.477799591502214e-05 -1.9564505976285417e-05
0.0001059716535839982 -1.4251930536428195e-05 -4.873174881967782e-05
9.237379361869777e-05 -1.4959406803871261e-05 -1.1838641073666455e-05
1.12473567415731e-06 8.955698749926007e-07 -9.900136137513633e-08
7.734753980105103e-05 -1.3115031551347095e-05 -3.4455357248098582e-06
4.626738930312389e-05 -1.76048678774953e-05 2.155277704738383e-05
4.6751417880279405e-05 -1.7901129415164102e-05 3.1827270651546976e-05
4.736357645189158e-05 -1.5699885395816522e-05 6.4920391195990174e-06
5.389786163048916e-05 -2.2059769276073408e-05 -1.252518691289606e-05
4.692184009368778e-05 -1.6689538171385632e-05 1.2057211528582914e-05
3.091342509238484e-05 5.024284924539969e-06 6.0952982325459584e-05
4.737060545528737e-05 -1.6952159810250756e-05 1.3056857165812142e-05
1.7535148954568874e-05 -5.075361749619204e-06 -1.6885079675313393e-05
4.854616842685292e-05 -1.5264386170534354e-05 -4.1085495272241997e-07
5.1428842665180374e-05 -1.779732501690538e-05 4.15287838718707e-05
4.7456963432491115e-05 -1.5249091535849563e-05 -4.447976615121235e-06
4.509025884720045e-05 -6.646816001343446e-06 -2.5123708600879297e-06
4.880475858236789e-05 -1.608521125147896e-05 2.651673401528476e-06
5.278155579296402e-05 -2.0801087423130702e-05 -1.2660504846565634e-05
4.73886013824746e-05 -1.7902917147027556e-05 2.0357606819817788e-05
7.703885284289189e-05 -1.638244696796795e-05 7.349804254839787e-06
5.0471537970536484e-05 -1.7924549845713522e-05 -7.310512024839529e-06
8.706173443049286e-05 -1.173633052833691e-05 -2.3527011002856456e-05
5.1542391298125414e-05 -1.8928409908745147e-05 2.2492459575995957e-06
7.669463090508133e-05 -1.6316118983811554e-05 -3.723486417443077e-06
5.22785767283662e-05 -1.8307102555727338e-05 2.047617941437297e-06
4.726351013480049e-05 -1.4371926574148969e-05 1.2448309508977242e-06
4.555203017627015e-05 -1.3694793652953966e-05 1.0026842335222924e-06
3.287150538270089e-05 -1.1050029069313726e-05 -1.6640114972504268e-05
3.7987167924355235e-05 -1.1001534181356035e-05 4.5411276483748395e-05
6.96177532882655e-05 -1.4707955491099946e-05 4.314701277741987e-05
4.55794149000137e-05 -1.7346186219776344e-05 -2.9299091057671554e-05
4.49760813840165e-05 -1.3909452494190272e-05 -4.182716924236762e-06
4.3405892131140076e-05 -1.3359095333883546e-05 -3.0068510462831403e-06
3.9511731545281195e-05 -1.2474208118872606e-05 -7.202152951504014e-06
4.0575201721189466e-05 -1.29108414993326e-05 -9.071906083762524e-06
4.9654656643013336e-05 -1.7012628270153813e-05 -1.7656417544838084e-06
5.426849908077747e-05 -2.1331336255207353e-05 4.642637577643237e-06
4.9484489809438115e-05 -1.4615460016094449e-05 -2.85024373999038e-06
9.804412925710303e-05 -2.363536859078846e-05 1.021906662966188e-06
0.00010047180861057586 -2.5062719939214623e-05 1.5986605178994156e-05
0.00010131831106794031 -2.6592502590746634e-05 -1.2298840462664862e-05
4.7242266298572006e-05 -1.4768145768440536e-05 -4.423131754634012e-06
5.601935586289308e-05 -2.2509414177335983e-05 3.4007991068195586e-06
4.866159362226166e-05 -1.3524646984305506e-05 4.964408656605722e-06
6.176560137863346e-05 -2.6588027927200188e-05 -8.15264691966375e-06
8.737308544650868e-05 -8.891437097078972e-06 1.8990959308744952e-05
3.5089221051099594e-05 -1.2315133583719458e-05 2.5536740058089393e-05
7.96005322734941e-05 -9.063177948035965e-06 -9.736954496004085e-06
4.9098515052471454e-05 -1.330691199847386e-05 1.1635519038490665e-06
6.052950540490591e-05 -2.612715026623845e-05 2.1664238832547173e-06
8.21355070463554e-05 -4.585102608436092e-06 -3.8162059368328224e-05
0.0001065703393977515 -1.2589308220024536e-05 5.35635676717787e-05
6.144404206657896e-05 -2.641197118021929e-05 5.617701346533177e-06
3.294449042635347e-05 -1.0763242815693913e-05 1.3576282719137736e-05
6.120787546001316e-05 -2.5452274100090816e-05 2.3293026213479506e-05
7.530185824039458e-05 -2.3115411180215335e-05 -4.704965108302103e-06
6.432046465267518e-05 -2.799078818080963e-05 1.163858875919943e-05
6.8072186027253e-05 -2.825793461236629e-05 7.968236064768296e-06
7.784295989234365e-05 -1.059948398719285e-05 1.4236617628370142e-05
4.018104319476009e-05 -1.273638107320733e-05 6.828649672207279e-06
7.454074046788648e-05 -2.657749443052773e-05 9.963961857816864e-06
3.1484813728764945e-05 -1.0254500768206204e-05 -1.3262127820632269e-05
7.107361750343303e-05 -2.6324163213234144e-05 1.2525974740523706e-05
5.19433827007819e-05 -1.9508974216846724e-05 -2.6751794897337015e-06
5.034681338595874e-05 -1.8479543181196274e-05 -7.521471026900865e-06
6.914753824304209e-05 -1.73420333144769e-05 -2.876449858885987e-05
2.197896186782202e-05 -6.721235229421057e-06 2.084330032002639e-05
1.4156169884056846e-05 -1.9688843794480466e-06 2.025715373694738e-05
4.13505505684411e-05 -1.3036424302154965e-05 7.669508414370781e-06
7.175582347010294e-05 -1.3759199194449662e-05 3.272675369442708e-05
5.263183831475533e-05 -2.029229643469569e-05 9.832472812803502e-06
4.9599898515670284e-05 -1.6774710005317247e-05 7.864761938933214e-07
6.523146737705772e-05 -2.8072244457326094e-05 -5.493858116199951e-06
7.234044791264525e-05 -2.6214382055918616e-05 -7.615985332744512e-06
0.00010161967487376656 -2.79999752938099e-05 -7.4267112930228425e-06
4.216818520431191e-05 -2.5514222775562542e-06 2.7893105497983935e-06
4.8232945765480385e-05 -1.4842153232899578e-05 1.4142537982754908e-07
4.822668934808218e-05 -1.4839842101656928e-05 -9.718153974203246e-08
4.2016326832110094e-05 -2.3303590260037388e-06 -2.5360404000022577e-06
5.044833035096669e-05 -1.711827926160097e-05 5.5670697253358695e-06
5.249310990184075e-05 -1.8796191586493385e-05 -3.0678244768570817e-06
4.8156140255691777e-05 -1.4689110826275641e-05 2.822809532346149e-07
4.266986348755274e-05 -2.98012564936708e-06 8.261460880360485e-06
5.8928565859313056e-05 -2.3064998007941898e-05 -3.1668062015194245e-05
6.912607977215346e-05 -2.8086468787685823e-05 -9.027190218222984e-06
5.026189135921951e-05 -2.046811424923379e-05 2.7991902324179368e-05
1.395383473403786e-05 -2.8700035733553644e-06 -1.6218252342048437e-05
4.8140619312358554e-05 -1.461257386775188e-05 -2.3946371047940266e-07
4.716268654795198e-05 -1.734735507006448e-05 -1.713660243132289e-05
0.0001015558309145457 -2.755661367022195e-05 1.0832060183169995e-05
4.2059190574409625e-05 -1.7434853628859814e-06 -7.566017951812297e-06
5.1472237347003946e-05 -1.9554138843135095e-05 9.652318309799729e-06
8.130275884155002e-05 -9.596248071350677e-06 1.341253673676483e-05
4.8138127621941e-05 -1.4693610097228125e-05 -4.266395542910929e-07
4.714103475858644e-05 -1.391084767805383e-05 2.8806657989007162e-06
4.79526650900258e-05 -1.4474138296400703e-05 2.785757823455338e-07
4.8001627689879847e-05 -1.4523173503917434e-05 -3.280560326903233e-07
4.744659870858266e-05 -1.3853532444523148e-05 -3.76217424348708e-06
4.3553057793436636e-05 -4.7945362444094e-06 -9.582786141661855e-06
7.18697964390026e-05 -1.3887168076135276e-05 -2.73618026738673e-05
9.303616116839836e-05 -1.5945462475042112e-05 8.931463263931929e-06
5.78125291532727e-05 -2.4081762854250596e-05 1.88964109965702e-05
4.727379200781444e-05 -1.4058817399249652e-05 -2.4306254007477724e-06
4.393727719687243e-05 -1.3573499178772894e-05 2.6724038545225243e-06
2.2067023000365092e-05 -3.586421763518392e-06 3.3013070887257345e-05
5.6166604483355695e-05 -2.3282855139129103e-05 1.656317551329849e-05
4.798104351960272e-05 -1.473281277497909e-05 -7.488586004912143e-07
4.719467341270097e-05 -8.847340062849623e-06 -1.1420646846158074e-05
4.704965730195722e-05 -1.4323955919356587e-05 -1.726098511976425e-06
4.85968006533565e-05 -1.562791484399321e-05 -1.1838121249531689e-06
4.827076993322051e-05 -1.5025004974117114e-05 -6.573036168067397e-07
4.755432903059733e-05 -1.4581811512873945e-05 -1.5356048202126509e-06
5.629316109676876e-05 -2.2829671529590318e-05 -2.0901215417731312e-06
6.106093041944092e-05 -2.2641197262748578e-05 3.4973278252598146e-05
-2.020296799446671e-06 1.8141055527741936e-06 -2.979130493460927e-06
-1.114731273420297e-06 1.920294775274582e-06 1.4584675411823668e-06
2.261340150862638e-06 1.9068669320736152e-07 -1.4841906106860689e-06
4.70046631800476e-05 -9.968336933751202e-06 -5.264030926947698e-06
4.564384724776519e-05 -8.229097825893767e-06 1.860041306442563e-06
4.807902198057544e-05 -1.4424739899448462e-05 -7.538322211837768e-08
5.0381943445363036e-05 -6.827016092568201e-06 1.8818016305943868e-05
5.0369495974279494e-05 -6.5307394363744e-06 -1.927302520201015e-05
4.809390622763221e-05 -1.4430643431816122e-05 9.160890696979257e-08
3.4474845014162235e-05 -1.1816487825606333e-05 1.5374382622696895e-05
4.539134781782999e-05 -1.400733790961378e-05 3.4373078830942587e-06
4.726202729573135e-05 -1.6143567043751944e-05 -8.91882797772514e-06
4.733054452734704e-05 -1.5463150633285997e-05 5.949314176438065e-06
4.8615201548145884e-05 -1.5557318282181146e-05 3.123696519919366e-07
0.00011735292683777292 -2.563126011323795e-05 -4.321230132477412e-05
4.4958969954960486e-05 -1.3494912463276246e-05 -1.3459206930010161e-06
5.640799609439872e-05 -2.2967132706043876e-05 9.798369071199309e-06
4.595699129826785e-05 -1.6563541419764338e-05 -1.4650251846287442e-05
4.460880241526739e-05 -6.556472843343122e-06 -6.7033674245531325e-06
5.632893080495056e-05 -2.2876578654603715e-05 -5.0865496469917886e-06
4.6738761295318796e-05 -1.5628614869083014e-05 -7.682539608668067e-06
6.825168581799492e-05 -2.5474130856821158e-05 2.4559586736988632e-05
4.976744818972436e-05 -1.7532594708494548e-05 5.67152942966308e-06
4.798319632670824e-05 -1.4746140581542598e-05 9.551812773977763e-07
4.767225963817632e-05 -1.0633204115619273e-05 9.179243172735743e-06
9.140842343660146e-05 -1.546504259388333e-05 4.61398857140749e-06
6.583996188217647e-05 -2.435949901247022e-05 -2.729213762747041e-05
7.546295982846138e-05 -2.0970667654204886e-05 1.3573580632692067e-05
4.622659106562469e-05 -6.435088995699735e-07 -6.67889135921756e-05
0.0001076169413892262 -1.4863480806300328e-05 5.00360984788527e-05
4.776582186065238e-05 -1.4041563382854547e-05 4.499922002747266e-06
4.8972570275558545e-05 -1.526036249837789e-05 -4.979166052321739e-06
4.8361997862594156e-05 -1.5214272793261354e-05 1.062004555635911e-06
4.4786087433337474e-05 -1.6885418020733397e-05 -2.4552117007419888e-05
4.616734523905837e-05 -8.757087414517762e-06 6.806911463919169e-06
4.879900955903796e-05 -1.644844714440303e-05 -4.093790456475861e-06
8.27009473434699e-05 -8.1193743064545e-06 -4.541436568534238e-06
4.776570474737436e-05 -1.5071388254727685e-05 2.8008608688942704e-06
4.8169507991215566e-05 -1.5245371386865048e-05 -1.868385097048615e-06
2.3948407154973397e-05 1.0659476544537337e-05 6.248172951796904e-05
4.776827245669227e-05 -1.2691793061218605e-05 -5.929708877822984e-06
4.805719201422796e-05 -1.448790738023862e-05 1.6220579608852637e-07
4.409566404815837e-05 -3.9471830649444126e-06 1.4217107631137407e-05
2.147525651840014e-05 -4.866388645696636e-06 -2.8279447415041273e-05
4.802288076752124e-05 -1.4405580813337518e-05 -8.892209647349409e-08
4.384528701036675e-05 -3.1039531305846406e-06 -1.4904511026925938e-05
1.5662817891058662e-05 1.3478158160857058e-06 -3.3507550788744796e-05
5.5928638352119676e-05 -2.3055036968190606e-05 -2.062155983643261e-05
4.3921260695893734e-05 -1.5414497116233843e-05 -3.483617194776048e-05
5.0938039309662444e-05 -1.735529890155642e-05 -4.0883530465400374e-05
9.51235653292415e-05 -1.8396037726898145e-05 -6.928877295069966e-06
POINT_DATA 200
VECTORS Displacement float
0.0 0.0 0
3.994885398262714e-06 -5.620451144373156e-08 0
6.4924310220396614e-06 1.4855198573963416e-07 0
1.242251367510752e-05 1.3472699871426986e-07 0
1.484728396434244e-05 4.714504863129751e-09 0
1.893485508149622e-05 6.677485017088657e-07 0
1.89919074300386e-05 -7.774813170098541e-07 0
1.4940325793810753e-05 7.619086995487366e-08 0
1.2432124490912249e-05 -1.2191757273094566e-07 0
6.502368113518663e-06 -1.470508460845458e-07 0
4.0036999828536055e-06 6.589981945458063e-08 0
0.0 0.0 0
8.625507021944634e-07 4.7353525004942434e-07 0
1.575598224298143e-06 6.696654129651341e-07 0
2.2649736046467324e-06 7.947234949481672e-07 0
2.9255896642954487e-06 8.950835681411286e-07 0
3.5030014555348755e-06 9.80761450533656e-07 0
3.901131199027161e-06 9.900240712634175e-07 0
4.029402986460612e-06 7.430095638683156e-07 0
4.706192258717458e-06 -1.338456250609672e-07 0
8.176954314825994e-06 4.705721541005827e-07 0
9.468127315559135e-06 5.615643543068506e-07 0
1.0774693009288754e-05 4.8742632970702e-07 0
1.414795676740624e-05 -1.1679531905874333e-08 0
1.48125578866296e-05 7.211504169329519e-07 0
1.4999126483300038e-05 9.82828473407263e-07 0
1.5406099007803357e-05 9.650309106235185e-07 0
1.5998648219157965e-05 8.772134078321206e-07 0
1.6692687674947255e-05 7.923808921286599e-07 0
1.7432306642726824e-05 7.339682722054681e-07 0
1.818263789514797e-05 6.963661314959938e-07 0
1.8957410971902653e-05 4.882822429386715e-07 0
1.89762694368628e-05 3.094169176668978e-07 0
1.8988422360478025e-05 1.2858679381791857e-07 0
1.8996813163941326e-05 -5.4491507458519065e-08 0
1.9002292411095675e-05 -2.3765094828198212e-07 0
1.900397978762299e-05 -4.186293037223902e-07 0
1.899986510045113e-05 -5.978335401064276e-07 0
1.823979741077565e-05 -7.880061370199724e-07 0
1.748861624691904e-05 -8.079620770772082e-07 0
1.6750629011377412e-05 -8.481160620113629e-07 0
1.6054424437753013e-05 -9.130622753637004e-07 0
1.54547260389803e-05 -9.822928426186663e-07 0
1.5036046892821777e-05 -1.0143959423644928e-06 0
1.4912758603244496e-05 -7.137999001517365e-07 0
1.4206508463861516e-05 1.0623845919772954e-07 0
1.0756582001966706e-05 -4.7297829628932735e-07 0
9.450172478159158e-06 -5.658732216374709e-07 0
8.158659021903294e-06 -5.070416868742081e-07 0
4.741613113555367e-06 1.3046816558481155e-07 0
4.033804725626559e-06 -7.41584097416292e-07 0
3.907775514140645e-06 -9.919084425912513e-07 0
3.504010889606788e-06 -9.79897576579285e-07 0
2.926153138249814e-06 -8.938124294860595e-07 0
2.265860511323809e-06 -7.913211956341245e-07 0
1.5728823198539315e-06 -6.685948558806537e-07 0
8.602705617333458e-07 -4.7433424653319023e-07 0
0.0 0.0 0
0.0 0.0 0
0.0 0.0 0
0.0 0.0 0
0.0 0.0 0
0.0 0.0 0
0.0 0.0 0
1.8509334463128822e-05 1.1833186284405058e-07 0
4.1706045041631145e-07 -5.15402602569562e-08 0
3.3868541423344446e-06 7.943243836552624e-07 0
1.556573365728124e-05 -7.866939521044832e-07 0
1.659616424695779e-05 6.329688177952803e-07 0
2.308005971833599e-06 -6.470719384682124e-07 0
1.5239784449764089e-05 8.14191829260334e-07 0
3.5430549345936738e-06 -8.304345134477888e-07 0
1.6943414264803014e-05 -6.565431586305789e-07 0
2.0079211291907838e-06 5.91244998168126e-07 0
7.645795299532472e-06 -1.1169401731471987e-07 0
6.698307455294848e-06 -1.7322560512258334e-07 0
9.989692758182578e-06 2.2559821256939223e-07 0
1.8415893619475566e-05 -2.3805260461093926e-07 0
5.138790799179501e-07 6.73464452387257e-08 0
1.1826923707616621e-05 -9.497958762401712e-08 0
4.576419409497137e-06 7.992073043651372e-07 0
1.7763910956953587e-05 4.889561934112594e-07 0
1.1441762996591787e-06 -3.8785630192687613e-07 0
1.3471762605831564e-05 -5.654763601372107e-07 0
1.296606418263453e-05 -3.273511627746635e-07 0
1.2769090318822433e-05 -3.207936983901173e-08 0
1.3826597361703344e-05 -4.941223033672384e-08 0
1.4174016716749084e-05 -4.6173714148316115e-07 0
1.4559069777234018e-05 -5.713974238684843e-08 0
5.140571459797106e-06 -6.765182908752637e-07 0
5.590719122895852e-06 -3.4480317465718924e-07 0
6.500782518502419e-06 6.898532111379195e-08 0
5.437147195299152e-06 4.432349505875592e-09 0
7.692193463369326e-06 8.126324508433722e-08 0
1.284899018330622e-05 2.608028441950817e-07 0
1.3712552379670933e-05 6.317752946497809e-07 0
5.781262442488218e-06 2.920300311462563e-07 0
5.160424651577375e-06 3.21882432763833e-07 0
4.477376518111863e-06 -2.0963178253694657e-08 0
4.30213124768911e-06 3.165447842786679e-07 0
3.559382084156415e-06 -2.1946667887888e-08 0
3.4333992846152292e-06 2.783288208656231e-07 0
2.7169811727133456e-06 -2.0399382794636444e-08 0
2.606195167292722e-06 2.3286696403551812e-07 0
1.9354948538753173e-06 -2.850120230562471e-08 0
1.4929950095246865e-05 -2.6376687985544546e-07 0
1.553544493394315e-05 -1.2372900688528435e-07 0
1.5827722688164313e-05 -2.970296629744419e-07 0
1.620467904011026e-05 -4.967277217069034e-08 0
1.6349445277750655e-05 -2.7716711698239533e-07 0
1.694005954856676e-05 -2.137999037062052e-08 0
1.4985669765533095e-05 1.8546334446239222e-07 0
1.83710355208959e-06 1.8421016199411467e-07 0
1.674725966822177e-05 2.1943660803038407e-07 0
1.7427424250398254e-05 2.45783120002655e-07 0
1.7050596267407202e-05 -2.492731445409142e-07 0
3.6720943027462164e-06 -3.322655155737581e-07 0
2.1166422592703842e-06 -2.5504100743850555e-07 0
1.4421286106213158e-06 -2.3648756091689338e-07 0
4.1513997803323505e-06 6.181830200192075e-07 0
1.6327192762262107e-05 -4.942076291380967e-07 0
2.6119536838725176e-06 4.717923805568948e-07 0
1.7213902576928344e-05 4.4905387333620795e-07 0
4.3877965043621385e-06 -6.800793122694643e-07 0
1.4908754592052079e-05 -6.257946514065886e-07 0
1.6767427844882941e-06 -4.3235907569981187e-07 0
1.1796711375054336e-05 1.0252628237463807e-07 0
1.45579920114431e-05 -8.362148486090039e-07 0
1.1044977390259003e-06 -4.071203049191747e-08 0
2.9207631418906556e-06 -7.358063319856147e-07 0
2.924145738393136e-06 -5.3499816752405e-07 0
1.594304352702202e-05 7.109069518849332e-07 0
1.589448850342371e-05 4.905971046060059e-07 0
1.7772363866834072e-05 1.4853419401583924e-08 0
1.764166354540529e-05 -6.254484870454499e-07 0
1.3225655710055726e-06 4.7034043660893686e-07 0
1.1717007379040478e-05 -8.530084941388636e-10 0
1.0692947254622355e-05 2.4570345491427153e-09 0
1.4479602573511289e-05 8.447786376762336e-07 0
8.650999690400619e-06 1.60608270068843e-07 0
8.250772256412405e-06 1.8738408506111007e-08 0
7.601402862969464e-06 1.8676435285120565e-08 0
9.497112671371233e-06 2.7970981710366742e-08 0
9.52967584216291e-06 -2.4993802481427787e-07 0
5.274293951491884e-06 5.781260472243935e-07 0
6.730129140667844e-06 1.9340682758850127e-07 0
1.8429378754521774e-05 3.82357155787087e-07 0
1.8088170508964106e-05 2.9142568240135176e-07 0
4.843249927224251e-07 -1.4963959112254482e-07 0
7.994991790629501e-07 -1.8222184120921527e-07 0
4.910235870687156e-06 6.034157507086293e-07 0
1.8383017006947063e-05 -4.262656933885769e-07 0
4.7017992292189216e-07 2.4434396861597324e-11 0
5.528614357944318e-07 1.4850194168694283e-07 0
1.845578886650466e-05 -4.6806288898698074e-08 0
1.0835214962915056e-05 1.199133662790251e-07 0
4.391977581289347e-06 -8.327721034168583e-07 0
4.556786044017224e-06 -3.764363783267187e-07 0
1.3894473820549488e-05 2.905360601568449e-07 0
1.8793431547466322e-06 3.895489750683025e-07 0
4.005466008146085e-06 8.604923463411502e-07 0
1.8519510521446285e-05 2.312289238031875e-07 0
4.029782187254476e-07 -8.394339511327825e-08 0
1.7032418608929986e-05 -4.5962300475454343e-07 0
2.7276055832991013e-06 6.965033674409223e-07 0
3.3942308796905702e-06 5.573065143936504e-07 0
1.5049077303404855e-05 5.667542494954079e-07 0
1.141990608450493e-06 1.2944110339321628e-07 0
1.4292878944178456e-05 -7.497535577527737e-07 0
1.7062973515719868e-05 5.923516168144399e-07 0
1.7747927376956096e-05 -2.334529821806465e-07 0
1.598453577009376e-05 2.1910234950175547e-07 0
1.4956443216574211e-05 -8.170755392231904e-07 0
1.6224345792857648e-05 -7.124214826850977e-07 0
1.8147859170042305e-05 1.4044326362890935e-07 0
8.398128252375293e-06 -2.1871898129933763e-07 0
1.4314277950002897e-05 -6.58206973097586e-07 0
1.5500986074645508e-05 -5.101571699040966e-07 0
1.8574554313937352e-06 -5.782443068310001e-07 0
1.4134957893217766e-05 6.080396113607771e-07 0
7.48257157801113e-07 -9.528777696917467e-08 0
2.8565743308895254e-06 -2.884797876783638e-07 0
1.771332796573694e-05 -4.3616900401561855e-07 0
1.1953153934423812e-06 2.867124459768638e-07 0
5.742310223580808e-06 4.539875158809362e-07 0
3.637311023398798e-06 -6.157667783557885e-07 0
1.3256421856282892e-05 5.253757929274788e-07 0
8.424092237945474e-06 -5.774170863845049e-08 0
2.2571770526291786e-06 -4.720950262211594e-07 0
1.6611582881725675e-05 4.4685339001913603e-07 0
4.668408104500085e-06 4.650768966200964e-07 0
1.0749366871206464e-05 -1.3517403562129346e-07 0
1.831825202382768e-05 -6.080409983155402e-07 0
6.376492973093889e-07 2.6663065080675036e-07 0
1.8341523106989043e-05 5.084137636975437e-07 0
5.70778337769617e-07 -2.396116744974497e-07 0
1.4484121957751856e-05 6.587205288995206e-07 0
4.681129443085179e-06 -5.177919052041223e-07 0
7.597223253355184e-06 -4.4100977598577076e-08 0
4.0720876385685546e-06 -8.852279795106629e-07 0