# vtk DataFile Version 2.0
Really cool data
ASCII
DATASET POLYDATA
POINTS 199 float
0.0 0.0 0.0
0.125 0.0 0.0
0.125 0.03055555555555556 0.0
0.175 0.03055555555555556 0.0
0.175 0.0 0.0
0.3 0.0 0.0
0.3 0.1 0.0
0.175 0.1 0.0
0.175 0.06944444444444445 0.0
0.125 0.06944444444444445 0.0
0.125 0.1 0.0
0.0 0.1 0.0
0.01562500001914041 0.0 0.0
0.03125000004302709 0.0 0.0
0.04687500009029187 0.0 0.0
0.06250000012942511 0.0 0.0
0.078125000069625 0.0 0.0
0.09374999998136457 0.0 0.0
0.1093749999689982 0.0 0.0
0.125 0.01527777781190649 0.0
0.1374999999728949 0.03055555555555555 0.0
0.1500000000514996 0.03055555555555556 0.0
0.1624999999674739 0.03055555555555555 0.0
0.175 0.01527777773277575 0.0
0.1906249999454511 0.0 0.0
0.2062499999464675 0.0 0.0
0.2218749999813653 0.0 0.0
0.2375000000284603 0.0 0.0
0.253125000025411 0.0 0.0
0.2687499999464675 0.0 0.0
0.2843749999108921 0.0 0.0
0.2999999999999999 0.01250000000785633 0.0
0.3 0.02500000002464271 0.0
0.3 0.03750000005532045 0.0
0.2999999999999999 0.05000000007786666 0.0
0.3 0.06250000001503192 0.0
0.2999999999999999 0.0749999999440657 0.0
0.3 0.08749999994628305 0.0
0.2843749999369807 0.1 0.0
0.2687499999742503 0.1 0.0
0.253124999894968 0.1 0.0
0.2374999998970008 0.1 0.0
0.2218749999180072 0.09999999999999999 0.0
0.2062499998726061 0.09999999999999999 0.0
0.1906249999261387 0.1 0.0
0.175 0.0847222221856304 0.0
0.1624999999105533 0.06944444444444445 0.0
0.1499999998834483 0.06944444444444446 0.0
0.1374999998590537 0.06944444444444445 0.0
0.125 0.08472222219443956 0.0
0.1093749999923767 0.1 0.0
0.09374999993596433 0.1 0.0
0.07812499987955196 0.1 0.0
0.06249999985295514 0.1 0.0
0.04687499989276568 0.1 0.0
0.03124999993257619 0.09999999999999999 0.0
0.0156249999764525 0.09999999999999999 0.0
0.0 0.08749999998398685 0.0
0.0 0.07499999993815812 0.0
0.0 0.06249999990588191 0.0
0.0 0.04999999987631621 0.0
0.0 0.03749999991857893 0.0
0.0 0.0249999999459339 0.0
0.0 0.01249999997735459 0.0
0.2851079194244213 0.041060334226873 0.0
0.01149071008013158 0.05590062105278427 0.0
0.07549272830902957 0.01277265054857388 0.0
0.2329286623658963 0.08675239393684837 0.0
0.2456992499130588 0.01371304376620775 0.0
0.05607249996092076 0.08361019436383875 0.0
0.08441988813291577 0.08676939070752165 0.0
0.2169480955588903 0.01317526994791438 0.0
0.2660403252029424 0.08587072315398811 0.0
0.04266966100842769 0.01359929696122901 0.0
0.2885382611461454 0.06730846258795932 0.0
0.01226205498083142 0.03594842625345301 0.0
0.09835422601006437 0.01591146291689881 0.0
0.2038895485517894 0.0870598507517057 0.0
0.1316265680872755 0.05995747512528639 0.0
0.1208903141482042 0.06012595568442565 0.0
0.1499971763633494 0.04028852882438498 0.0
0.1122841422467419 0.0667314303658352 0.0
0.1092622399502449 0.054396463846178 0.0
0.2766891598936278 0.01596640743499632 0.0
0.02852533088033585 0.08692864334977543 0.0
0.187245069307912 0.02298926212397494 0.0
0.1872915058531512 0.03514888100352696 0.0
0.1725936819558446 0.04352122215401973 0.0
0.1887007826597846 0.04668808151572908 0.0
0.2040562707035856 0.03930188119190869 0.0
0.2012240595432053 0.05926861144201187 0.0
0.2135333964239766 0.04743661479218848 0.0
0.2177808173235059 0.06428831046856878 0.0
0.2251647928100448 0.05413170994089327 0.0
0.2221820959907756 0.03718491902584862 0.0
0.2377226038122759 0.0412781791486096 0.0
0.2341935611090598 0.06186756908869347 0.0
0.246374941621074 0.05436703418925967 0.0
0.2546012828535162 0.03382115741308661 0.0
0.2630074103935166 0.04645153437795634 0.0
0.2636807186318497 0.06172403895812671 0.0
0.1154491414342908 0.04323940657150498 0.0
0.0979057281290322 0.05074611180388267 0.0
0.09325103044685079 0.06274197818002948 0.0
0.08518007551959457 0.04836373083177583 0.0
0.08107126025398471 0.0608405525567892 0.0
0.07147654306454689 0.04728175244750643 0.0
0.06823101442822523 0.05962597030723302 0.0
0.05728170541058562 0.04606163756824265 0.0
0.05453602589080566 0.05891216146933289 0.0
0.04059600821376469 0.04310662851138959 0.0
0.03956794083574915 0.0589772230732107 0.0
0.09046421627658706 0.03333389933924786 0.0
0.06607434544491789 0.07125789269601908 0.0
0.0245082691663667 0.04635066679509831 0.0
0.04987997361468739 0.03001870559706862 0.0
0.04037043913474767 0.07256734153335005 0.0
0.1298788582360218 0.04026702277721532 0.0
0.1514144454927694 0.05897904183651693 0.0
0.2743150808741482 0.0335240961729717 0.0
0.1895511232102515 0.06389752181972268 0.0
0.2024839011478474 0.01310042235837589 0.0
0.2139129491510971 0.02548278898184776 0.0
0.02619383414353976 0.07414504762931802 0.0
0.2748621060883741 0.04925991504627586 0.0
0.2890540389562613 0.03012155399334319 0.0
0.03393893815611509 0.03423638642196518 0.0
0.2318432109365201 0.01314667031121877 0.0
0.2406588919852922 0.02624434555542026 0.0
0.1092144313669543 0.0268970244730509 0.0
0.2574002163740248 0.0169654130626824 0.0
0.04305510226943224 0.08598628032569526 0.0
0.2184505353650359 0.08733919685634062 0.0
0.08505000601175747 0.01191606924505511 0.0
0.07535647758367793 0.02385570900374515 0.0
0.06591894315548799 0.02539824353039465 0.0
0.2518209203416261 0.06594266429499838 0.0
0.09774800545729921 0.08743573019231402 0.0
0.08914328453793069 0.07446431170695203 0.0
0.05949391171017746 0.01654654532838297 0.0
0.2756779728831336 0.05864239021369865 0.0
0.2788984407274234 0.08384691793000867 0.0
0.2496800659047575 0.08359371072726873 0.0
0.02824251340003086 0.01232773483108471 0.0
0.2649924620432851 0.07331847468166575 0.0
0.1892802914173233 0.0732320458953919 0.0
0.2027900710582952 0.07430174075530906 0.0
0.07235514915616928 0.08404240406815726 0.0
0.2267478138930694 0.06715343113098443 0.0
0.1385085718905738 0.04033162497613615 0.0
0.165291072827125 0.0557536734017847 0.0
0.1428897927502618 0.05989526116577149 0.0
0.01283682993457363 0.07535791269705161 0.0
0.05407986608100603 0.07146042587228492 0.0
0.2897780785706001 0.07958683774998014 0.0
0.01187679690701803 0.04758048280906252 0.0
0.01295164508074012 0.02416217141515912 0.0
0.2875615540724593 0.05460700083621077 0.0
0.1038549817353782 0.03879114300447838 0.0
0.2274231307607736 0.02563919665420703 0.0
0.2406935366102518 0.0714139850999024 0.0
0.2898461824909293 0.02019009695611345 0.0
0.01423675919444517 0.08740466987124607 0.0
0.02460079386410875 0.03508663467300237 0.0
0.2769344358573257 0.07080129858837504 0.0
0.1378958629283613 0.05221131825394735 0.0
0.1505477544658367 0.04968134451700999 0.0
0.1588406458561505 0.04839118754174154 0.0
0.1259631677533315 0.04803201043758961 0.0
0.02213445517977635 0.06035569941648075 0.0
0.1802160632288758 0.0597531316712382 0.0
0.216461665873457 0.0752343380790732 0.0
0.2505967880781508 0.02592680235259903 0.0
0.09988819479028685 0.0250371516790871 0.0
0.2131291808447847 0.0339651841127452 0.0
0.07737569424296134 0.07254249608502014 0.0
0.1608418362838618 0.04099783975494851 0.0
0.01192245843835466 0.0668286841236575 0.0
0.1106884478746232 0.0142719281341868 0.0
0.1886424996721792 0.01340333321401071 0.0
0.1112673182223778 0.08667921386657378 0.0
0.2660660510745486 0.02473820577958686 0.0
0.198030704404873 0.02737478369225568 0.0
0.1896364201492296 0.08616715131219935 0.0
0.02578086845915267 0.0241522851482305 0.0
0.2558336643869801 0.07397786329931841 0.0
0.03806601006707905 0.02591271399015371 0.0
0.1008222433932021 0.07562434088646999 0.0
0.2878577388750112 0.01220813230240108 0.0
0.07455248524871758 0.03490879816148377 0.0
0.2918701840815974 0.08819862976574884 0.0
0.01416429512099697 0.01220525798797494 0.0
0.08693061708689545 0.02029003639670243 0.0
0.229274555491168 0.07492529929649829 0.0
0.06184569728369341 0.03375060022324877 0.0
0.1122832006712814 0.07460304190045504 0.0
0.06476417485432308 0.08020590083598317 0.0
0.1042957030232175 0.06495022206207708 0.0
0.2832731383585832 0.02514530004172728 0.0
POLYGONS 166 830
4 131 116 153 69
4 155 114 169 65
4 84 123 116 131
4 58 152 162 57
4 72 144 164 141
4 95 94 159 128
4 140 124 64 157
4 57 162 56 11
4 169 123 152 177
4 146 171 132 77
4 182 122 174 89
4 32 33 64 125
4 134 189 194 135
4 156 184 163 75
4 168 101 2 117
4 145 8 170 120
4 147 175 138 70
4 73 14 15 139
4 64 124 99 119
4 71 122 182 121
4 150 167 176 87
4 137 51 52 70
4 121 25 26 71
4 72 141 38 39
4 136 97 99 100
4 115 186 73 139
4 99 124 140 100
4 77 132 42 43
4 143 13 14 73
4 68 128 159 127
4 111 110 108 109
4 68 28 29 130
4 39 40 142 72
4 127 27 28 68
4 131 69 53 54
4 71 26 27 127
4 143 73 186 184
4 2 101 158 129
4 66 16 17 133
4 99 97 95 98
4 84 131 54 55
4 134 135 139 66
4 67 142 40 41
4 90 92 171 146
4 20 21 80 149
4 149 117 2 20
4 48 151 118 47
4 139 15 16 66
4 132 67 41 42
4 70 52 53 147
4 95 93 91 94
4 47 118 150 46
4 97 96 93 95
4 113 153 109 107
4 109 108 106 107
4 110 111 169 114
4 90 146 145 120
4 122 71 127 159
4 48 9 79 78
4 23 4 24 179
4 17 76 192 133
4 111 109 153 116
4 96 148 92 93
4 193 160 142 67
4 3 86 88 87
4 107 106 104 105
4 93 92 90 91
4 19 178 18 1
4 104 112 158 102
4 172 130 181 98
4 88 89 91 90
4 100 140 164 144
4 29 83 181 130
4 158 101 82 102
4 46 150 170 8
4 50 180 49 10
4 105 104 102 103
4 45 183 44 7
4 97 136 160 96
4 114 155 75 163
4 95 128 172 98
4 139 135 194 115
4 150 87 88 170
4 60 61 75 155
4 34 35 74 157
4 33 34 157 64
4 59 60 155 65
4 35 36 154 74
4 61 62 156 75
4 138 175 105 103
4 64 119 198 125
4 165 78 79 168
4 87 176 22 3
4 193 148 96 160
4 29 30 188 83
4 13 143 191 12
4 110 115 194 108
4 152 58 59 177
4 110 114 163 126
4 38 141 154 190
4 184 156 191 143
4 189 134 192 112
4 182 85 179 121
4 195 180 137 187
4 55 56 162 84
4 157 74 164 140
4 53 69 196 147
4 122 159 94 174
4 38 190 37 6
4 12 191 63 0
4 173 76 178 129
4 90 120 170 88
4 30 5 31 188
4 116 123 169 111
4 82 101 168 79
4 17 18 178 76
4 25 121 179 24
4 130 172 128 68
4 168 117 149 165
4 80 166 165 149
4 48 78 165 151
4 118 151 165 166
4 51 137 180 50
4 88 86 182 89
4 146 77 183 145
4 166 167 150 118
4 43 44 183 77
4 188 161 198 83
4 92 148 193 171
4 3 23 179 85
4 70 138 187 137
4 66 133 192 134
4 2 129 178 19
4 107 105 175 113
4 123 84 162 152
4 89 174 94 91
4 100 144 185 136
4 21 22 176 80
4 136 185 142 160
4 99 98 181 119
4 144 72 142 185
4 141 164 74 154
4 129 158 112 173
4 3 85 182 86
4 169 177 59 65
4 102 82 197 103
4 110 126 186 115
4 175 147 196 113
4 79 81 197 82
4 189 106 108 194
4 112 104 106 189
4 8 145 183 45
4 113 196 69 153
4 36 37 190 154
4 62 63 191 156
4 166 80 176 167
4 79 9 195 81
4 32 161 188 31
4 186 126 163 184
4 195 187 197 81
4 9 49 180 195
4 32 125 198 161
4 76 173 112 192
4 67 132 171 193
4 119 181 83 198
4 103 197 187 138
CELL_DATA 166
SCALARS Von_mises double 1
LOOKUP_TABLE default
10161757.532619003 9288507.61159362 9999137.763682216 9147052.932522988 10031982.294483671 11889980.037816241 10210863.947568178 10575265.941329772 9466965.432020433 10425886.58798973 13532411.6053741 10058985.938719684 11735695.543710602 9477267.690432113 19802247.45166077 16940365.67147383 10745002.234164303 9127085.295111287 10345940.15625261 10982105.057223614 21400931.889858354 6031098.388302703 6305209.559697305 9937646.29286041 10884904.295678426 10022309.977098089 10456790.128686909 6358084.054304851 9439905.09635285 10157882.526372695 11204014.768122725 9667189.284255823 9741642.438018756 9130281.377849659 9070501.7788258 8082491.480258204 9920134.975198735 16620152.890809208 6186658.114292192 11218031.04865994 9428590.008089041 10164621.714584285 9208768.228148049 13749305.599069847 25601933.075940736 29651995.91211803 25614169.58946647 8143267.197897496 8101996.55771268 7804701.129419447 13574537.032701202 25401503.98150386 12431056.687309824 11652850.331957204 12400709.564351257 10169599.178680388 15379429.460081454 10300402.325964231 27408576.08053045 478580.5039927432 7894842.513573987 10838374.835879419 12858065.385689154 10213070.653998831 18104441.49454392 13900621.857996205 14920645.27405776 350938.74196247786 16178153.265815174 10284325.658879997 16934112.156242676 10305785.673397388 9917083.77145628 18031869.482965052 25584572.7047519 456069.9523088625 15470424.287152408 278496.5633495194 11344178.201845936 9350727.398336744 10964201.137002137 10811627.102916848 18720919.714763854 8562437.76159474 10078437.693171201 10090797.082849337 8532691.727151547 10036322.91639717 8733321.879627734 13526397.146779694 10112559.62020799 19795481.461678043 27789907.804212864 11537978.126695868 9969087.794696385 9796193.155189525 11242003.095573358 8732365.795555055 10106903.480765892 9980530.436135586 9857918.475781813 12568976.73917674 9706757.414698193 9827066.300264949 9805302.009681571 10150215.98564163 9191438.516522316 12510460.698405018 10002821.268623553 10582214.163044875 10882248.270197252 17605825.73852797 10002669.580327103 10143083.546601154 18018049.78590578 3922831.8982892577 3689169.529772137 10203961.679620769 20938769.450510383 24647124.47714512 25096964.84076403 24524557.8677411 3463400.9626469472 16653518.752542011 10467086.767845504 24208001.49102872 3853940.584086742 10001136.999993106 12075649.274871135 10724671.07937864 10290001.073997315 9780769.79575321 11735303.555112861 12571677.36717348 9858533.53367474 14750671.390677305 10466970.675636578 25628240.986715794 10447417.148472592 10406104.70469977 9975825.633290317 10051995.5537808 14400700.128359055 16124849.555345457 8878572.111461215 16900240.890824076 10509843.724409843 10873729.050043605 18447393.769426823 12395170.946856981 13806607.646423642 11272439.078199664 10490199.85450317 9995400.679347591 9162487.501794925 24947776.67411769 16857043.417609487 9993610.09695518 9997489.965527192 14758047.412886318 10786243.648525212 10037105.4966719 11642267.558870168 10198100.069775658 10076846.760587808 14314028.594653431
SCALARS Stress double 1
LOOKUP_TABLE default
9909542.187288323 -395174.74718125194 -574492.7851994408
9839120.747512948 1223990.5170890985 -65610.64959112715
9969240.877542093 1940.6687253906202 -453260.6205526693
9796274.405729102 2123043.1770131458 -1153572.1800569366
9934143.342559319 -180632.7566031603 205268.0500408556
10985642.449007763 -1332388.3381058427 -1193717.5423927454
10074928.51407805 -266575.8034198372 15949.607705937266
11056044.36634511 1885142.1929654474 -1515320.3548924932
9924881.205080712 1145382.450862286 -626112.7045920003
8837423.19734053 -733585.0433979871 2803445.1353698703
11905341.168485215 -1592876.6370768242 -2574750.456165963
10007179.994624265 -102563.32705123056 -29764.407420152285
10740784.411736177 -1397124.739627608 1342128.5274457836
9946846.000401925 1174835.1452019028 628364.057739942
21218057.802717652 5683895.437243155 3173724.5106159295
16739802.274282925 2017374.1981156052 3485955.4135432257
9515644.168246772 -1007170.8595400321 -2183980.801135873
9036605.110715644 -136142.68488046172 362698.9314389234
10150555.629181374 -378410.9904761775 -82505.45117219651
9207620.95138446 -675022.0008372695 -3117442.6743915896
23118181.96083016 4092566.7215618365 -686330.4271686523
5455586.929652565 -181278.10207232664 -1364902.7838155865
5674588.740044091 -241366.23424140213 -1429078.7765757951
9914173.898701904 -45364.99229580813 68690.95826039821
10479998.344436938 -758110.4552574793 209004.3446982629
9772078.997893708 -391500.05803990184 569832.5911100175
10167319.883424915 -556145.0903549173 45693.860841286936
5769863.718388088 -226429.22468376346 1387584.1777177483
9420418.31424878 -34183.80829512356 121563.0237790975
9583314.640485477 -668763.1105001299 -1222899.0848534368
10843125.936854638 -689472.3122773281 -41471.518049015634
9608071.293359384 -96239.40105281149 -261774.47704293724
9695128.262634302 -77016.13010886632 224701.7410431477
9024427.680229602 -133070.39574784334 -484131.9344915522
8946735.709132604 -192301.4138149771 -396851.32017048314
7819892.243473553 -215273.78521928506 -902993.7657677929
9923200.652238442 62077.61533994891 428688.5988221302
16481669.058761906 1234001.3400743704 2792830.6756880945
5642748.651385706 -282511.9062006762 1259652.0188214425
10665584.049367784 -1022739.3815435531 -212468.6781297972
9413971.502122406 -22227.928464399345 -147989.7878738547
9449850.745479217 -764425.875341571 1438957.7410881335
9099715.515504386 -145422.83109615455 466238.7172538083
12109548.683400568 -1659280.3892683047 2553160.59538619
25795153.589068394 451644.6311130838 710701.1316878475
30144347.53509977 3208679.4850139003 4358405.6237284625
25986217.54281524 813770.3426752987 -654923.0385992486
7950468.690056628 -182557.01141660468 734417.5467555235
7862242.9772652 -196982.92866428796 864089.822860847
7522929.574525885 -225493.3060094067 -925864.072923979
12403082.075912807 -2053109.576459039 -500488.144959478
25807062.85046078 990324.3790894549 1126725.738945938
11547191.170362396 -1601020.4929480285 218319.42930543888
10938003.896908274 -1183424.0119868403 -775500.4326800078
11544573.759052312 -1557507.7638351952 -176843.36468050152
10295288.686755447 257453.73527001304 -63394.04195440978
13851448.490509782 -851557.3728457893 3273314.9449470076
9234919.268095177 -901881.7146954157 -1972507.6034165607
28222529.997857228 5821934.171488202 -5327089.185959777
-51009.233215198954 188794.758942761 245739.44198125228
6964252.711989734 -334033.86093450553 1948490.6667742028
10506472.540865207 -579346.3019477262 -469707.597136601
11652455.049897976 -1915100.7162588546 1090397.6349808965
9675392.981587982 -677437.2579359607 1107578.4255257868
18956945.00295238 3416976.5915005747 -2677358.5414852346
12695183.986145476 -2124419.4563844893 -438382.52234933694
13678501.242879888 -2144723.13351101 727512.6060797053
88678.74205151212 260129.8431685698 -153508.45066174606
14934760.29921591 -2025991.7707702303 1200449.0517169642
10016083.68654064 -460925.95107378945 -453246.1474317804
15927613.33179549 -1859449.3311852254 -19547.383348646094
10102510.954284692 -383065.6024614145 209624.31768557854
9849281.337784143 -123192.44479628437 -192937.15152485602
17615454.6512102 -756434.4169296722 561825.9774130135
26636703.767603733 5334338.7222328065 4423060.916692641
-18808.221702102175 171352.30720083 241565.45478011074
14116959.588901626 -2279861.78336577 -942159.4299844755
134964.9745410724 207312.67011248186 -121581.51929086736
10678318.620669067 -1127555.8143973972 671343.9623630547
9902484.700443352 1256603.0206409488 283631.60991840257
10352496.415846601 -1007468.540744029 -729090.1212704695
10263045.507387435 -815776.4318307971 917121.5287257078
20342850.391818002 3890333.865268706 464419.0330839493
9460200.857254993 2278866.0815361086 248489.03538313071
10011082.50346449 -133269.95944675957 19966.660673903494
10011808.325856373 -156119.57159542353 -12480.200190493073
9474107.129648065 2405640.954332678 -132052.92146977913
9998352.009882731 -75320.69915054528 25682.011958965737
9549956.990375271 2239948.3846858055 693607.5988435283
12026648.604459627 -1793372.2232976728 -2124358.8553854614
10016316.405717267 -187245.3642492259 -94336.44146255766
21819633.63892542 5301718.02094693 -1054830.960080113
28552561.59497939 4216578.524943415 -4458878.249367934
10634565.691827908 -1305941.4449638564 1216189.2197195299
9945350.970772516 -46423.376976666594 -54325.007462054105
9808918.863383114 43543.458243174864 242025.67462403537
10716823.96138172 -933519.6346629489 467793.85921512754
9572725.758587113 2340459.526697121 -717393.5090077748
10287667.727300938 399998.2344951224 299132.6587330225
9966468.345594186 -27807.847483691858 29309.809568748347
10156787.68181013 836938.51154655 778537.379575574
11233899.746689277 -1390263.1000022572 2177748.4532674216
7364458.994906924 503246.9985885528 -3805205.5382050807
7418729.9864803925 595315.3159499328 -3898536.508227325
9819610.329345884 49110.91238673341 -257577.57518206
10030972.230902918 -232754.68488577096 76485.58467973905
8940173.220282279 -298127.05170933 -774953.2397642214
11148835.769289812 -1628887.3733900576 -1949497.0281207971
10000415.53131048 -4809.63001027669 -606.0683093367727
11067537.37586035 1901116.0484933315 1518695.023058799
8411374.21434299 428612.79014559987 4126888.4520741464
17573731.15530323 69636.56181567228 884684.1586549833
10000662.218155226 -4008.7641753569806 3981.831386760755
10232594.745359179 235339.0574185684 -419878.29226699396
19036679.143843412 2278781.659804345 -384081.0267144892
2905709.8116755905 529991.107138053 1653740.2435120957
2746271.9551941915 524579.5640139215 -1552784.229854171
9879173.039679157 -476530.20442640514 -727545.7894760064
22555958.95671947 4259897.409599859 1591658.132773087
25757136.356564768 2423906.9368669856 450277.08178035537
25787058.29483538 1890665.3129822265 -1831697.7583187202
25352783.91499597 1775011.8867406345 -424700.671343069
2528620.1973239933 521334.0976265883 -1488589.1321665526
15711194.137993595 -708335.6058874499 -2507822.963583166
8098396.704451482 205604.471146167 3898660.863934826
25323077.61367501 2453276.644273304 540069.4211094456
2902080.317626906 505472.38414493296 1596058.3721271148
9955336.501463769 -89345.36015255548 -74320.73894119408
10797409.720349895 -1523636.7557884855 1867658.9142352138
5971680.0722640185 4856525.39190943 -5315806.113106902
8562182.544548081 -660288.6484865786 -2971175.925283163
8805746.731608614 -763311.5215392375 1898956.7207087341
7993409.6217280915 3836361.679401469 5470243.491694738
11452824.739609003 -1641530.0543614696 -1339788.586721446
10153852.750596488 824752.9677044104 -771181.0176053131
13408901.919170633 -2076340.1898426127 -1370039.5684578696
10163896.050214697 -541975.3538990911 387459.14280234603
25855146.900073104 514970.0652799193 -675165.9962897107
10098902.44954922 -553334.9087582655 649728.0461745781
10132545.539688047 -508685.293620694 -261724.01519877152
9762614.361549536 -354706.11247552367 454526.30267435336
9985882.284863532 -128604.34434047787 89447.72176781495
12664982.161865855 -1031112.541588402 3309389.4707345455
14809273.28653342 1162634.427479554 -4342128.896605463
9621740.07909836 1817937.449753932 -382093.19939100574
15847323.006191626 -1560378.258158724 -1561825.5480790504
10348412.369799895 -262230.86760038853 441489.28040886624
10028196.50994176 -978798.3495114654 -1516534.4056147751
18181557.596990664 217268.955965672 -2132321.3070345055
11478382.655517798 -1575152.3867984598 664752.4695337779
12474320.741529558 -2139656.6620521685 1117264.908765407
7447882.512400406 4078626.925793778 5333506.207884204
9962419.259791678 -754775.0086296815 -949635.9097247864
9988159.069846474 -14422.239342251029 12295.181501471687
9807428.211865788 2117175.4451010325 1161485.1719618663
25918512.37634348 2135463.1062925304 -685590.123011292
16625994.60305634 2454915.6385074994 -3764970.9873564932
9986201.223682035 -14724.316828536474 -16032.195304860088
10140675.712455247 372910.2504397454 502991.57392348873
12841015.534089455 -321226.6223861876 -4028242.830454329
6651642.551758358 4366085.6593839815 -5230603.5528254295
9993396.864540206 -86239.56527051011 -45615.76966926031
9818951.841710676 -1077924.4313448756 3021289.4312648703
9228285.88165504 -839879.9922233167 1860459.947051493
9970243.592706114 -202437.45954056995 -160988.2289054699
12541600.76067628 -1379189.911004828 -3076808.461201722
SCALARS Strain double 1
LOOKUP_TABLE default
4.821199332424375e-05 -1.6192487516191103e-05 -7.181159814993008e-06
4.5538094194164516e-05 -8.306469745984545e-06 -8.201331198890895e-07
4.792624363905999e-05 -1.4369382666044415e-05 -5.6657577569083654e-06
4.403539159915942e-05 -3.922303580315311e-06 -1.4419652250711707e-05
4.802083254586667e-05 -1.5196518073898827e-05 2.5658506255106946e-06
5.4737302646343826e-05 -2.2250389773116213e-05 -1.4921469279909318e-05
4.882164064953847e-05 -1.581276133482333e-05 1.9937009632421583e-07
5.0435104367574405e-05 -6.883034216048487e-06 -1.8941504436156163e-05
4.60637811049136e-05 -8.808086108951578e-06 -7.826408807400005e-06
4.354566687673041e-05 -1.6273134627885315e-05 3.504306419212339e-05
5.9534635382732034e-05 -2.4829225902030716e-05 -3.2184380702074536e-05
4.825937015740209e-05 -1.4926525603069764e-05 -3.7205509275190357e-07
5.365347035396375e-05 -2.2208461842059908e-05 1.6776606593072294e-05
4.612690123481421e-05 -8.698166610185938e-06 7.854550721749276e-06
9.3811967170888e-05 -3.276547613327593e-06 3.967155638269913e-05
7.757014430215503e-05 -1.4445031173890732e-05 4.3574442669290316e-05
4.7200939548599907e-05 -1.8566654375067613e-05 -2.7299760014198413e-05
4.3641576520095116e-05 -1.3688097202380556e-05 4.5337366429865435e-06
4.934653329963571e-05 -1.6459508073223988e-05 -1.0313181396524566e-06
4.5240997844402125e-05 -1.6525520606983692e-05 -3.896803342989486e-05
0.00010524236511712312 -1.3667730128303899e-05 -8.579130339608152e-06
2.649024211670319e-05 -8.740164331577386e-06 -1.706128479769483e-05
2.762980101113708e-05 -9.344917578147257e-06 -1.786348470719744e-05
4.772972786726272e-05 -1.4517390201472977e-05 8.586369782549778e-07
5.147803596641434e-05 -1.876014403167577e-05 2.612554308728286e-06
4.7545812573585004e-05 -1.597655652600007e-05 7.122907388875218e-06
4.9683477935247075e-05 -1.7338178150876886e-05 5.711732605160867e-07
2.8066310027852005e-05 -9.410520866347066e-06 1.7344802221471857e-05
4.533977623431402e-05 -1.3751487031585369e-05 1.5195377972387189e-06
4.7038190257863045e-05 -1.703729568579698e-05 -1.528623856066796e-05
5.3124844377585763e-05 -1.895389467948904e-05 -5.183939756126954e-07
4.633145727728475e-05 -1.4320484562791474e-05 -3.2721809630367158e-06
4.6722274527244996e-05 -1.435362792739979e-05 2.8087717630393462e-06
4.357859999497093e-05 -1.3655762979888097e-05 -6.051649181144402e-06
4.3290510256139886e-05 -1.3828471762282492e-05 -4.960641502131039e-06
3.7906126822304516e-05 -1.2313660857025728e-05 -1.128742207209741e-05
4.7618160421329124e-05 -1.4013858559286458e-05 5.358607485276627e-06
7.745898392663265e-05 -1.783893931516443e-05 3.491038344610118e-05
2.7536068380989946e-05 -9.496810103924942e-06 1.574565023526803e-05
5.275195126841755e-05 -2.030007017477831e-05 -2.6558584766224646e-06
4.529153788779676e-05 -1.3684708553370776e-05 -1.8498723484231835e-06
4.653451205808503e-05 -1.7304716822044887e-05 1.798697176360167e-05
4.395837675400593e-05 -1.3823737912247455e-05 5.827983965672603e-06
6.0612176923947405e-05 -2.5443004780233054e-05 3.1914507442327374e-05
0.00012336375096026186 -3.5033180026958816e-05 8.883764146098094e-06
0.0001402968446615173 -2.8051080651519385e-05 5.448007029660577e-05
0.00012376003096159927 -3.356776403927535e-05 -8.186537982490608e-06
3.848671054558466e-05 -1.2344700088623045e-05 9.180219334444043e-06
3.808335507627157e-05 -1.2286806835787728e-05 1.0801122785760587e-05
3.649316137658033e-05 -1.1934481626765252e-05 -1.1573300911549739e-05
6.25914180233198e-05 -2.775977980400424e-05 -6.256101811993476e-06
0.00012264406508045165 -3.246055036561913e-05 1.4084071736824225e-05
5.782450633772504e-05 -2.4351816557965132e-05 2.728992866317987e-06
5.429341875242465e-05 -2.1465505678169818e-05 -9.693755408500098e-06
5.774916388559073e-05 -2.4138845632456198e-05 -2.2105420585062688e-06
4.9125252721992504e-05 -1.3611215724791445e-05 -7.924255244301221e-07
6.782171010751694e-05 -2.407207653845541e-05 4.0916436811837595e-05
4.5699441262037506e-05 -1.7655564880403693e-05 -2.4656345042707008e-05
0.00012728821993466716 -1.2715503980139254e-05 -6.65886148244972e-05
-5.175368312405156e-07 9.81238119746734e-07 3.071743024765654e-06
3.396376379937541e-05 -1.1650527281401088e-05 2.435613333467753e-05
5.134748284350733e-05 -1.79388849240735e-05 -5.871344964207512e-06
5.878358300372901e-05 -2.6013640534751192e-05 1.3629970437261204e-05
4.7493385379657555e-05 -1.7211803617367094e-05 1.3844730319072334e-05
8.621082704568369e-05 -1.0913975525890091e-05 -3.346698176856544e-05
6.409860491856163e-05 -2.852391659725063e-05 -5.479781529366711e-06
6.88553758794865e-05 -3.0039776472956622e-05 9.093907575996314e-06
5.115283221606344e-08 1.1227222141976737e-06 -1.918855633271826e-06
7.472383572330277e-05 -3.1280864714110597e-05 1.5005613146462054e-05
4.881904553780183e-05 -1.6662264697288377e-05 -5.665576842897255e-06
7.925696216899547e-05 -3.1912179474634e-05 -2.4434229185807585e-07
4.912226266838036e-05 -1.64125908112828e-05 2.620303971069732e-06
4.7529995534726106e-05 -1.4797965606401574e-05 -2.4117143940607005e-06
8.578069700138992e-05 -2.904360967448429e-05 7.0228247176626674e-06
0.00012036731803333603 -1.2772463500232279e-05 5.5288261458658e-05
-3.375668935689959e-07 8.509364120743297e-07 3.0195681847513844e-06
7.11582602111123e-05 -3.132187336555893e-05 -1.1776992874805942e-05
3.498614110929225e-07 8.020345084142314e-07 -1.5197689911358422e-06
5.296435271628984e-05 -2.082236250287556e-05 8.391799529538182e-06
4.579569131851475e-05 -8.241069180250273e-06 3.5453951239800325e-06
5.122469700995101e-05 -1.9775083968740428e-05 -9.11362651588087e-06
5.051816556219555e-05 -1.8724471557918404e-05 1.1464019109071346e-05
9.219110688575669e-05 -1.0637121405176416e-05 5.805237913549366e-06
4.21949088115104e-05 -2.688433536732644e-06 3.1061129422891338e-06
4.832242063124288e-05 -1.5079782261952435e-05 2.4958325842379367e-07
4.8358866333341355e-05 -1.5190683025732385e-05 -1.5600250238116341e-07
4.207891751609741e-05 -2.098996079623758e-06 -1.6506615183722389e-06
4.817763567128797e-05 -1.4782818760170023e-05 3.210251494870716e-07
4.268255997581505e-05 -3.0049938097441154e-06 8.670094985544104e-06
6.040702053581215e-05 -2.5968109637670968e-05 -2.655448569231827e-05
4.8425432764384785e-05 -1.5346828297905797e-05 -1.1792055182819709e-06
9.725537611846797e-05 -5.981596493897569e-06 -1.3185387001001413e-05
0.00013119032710334793 -2.0909567084376933e-05 -5.573597811709917e-05
5.301128906402436e-05 -2.1616880540924176e-05 1.5202365246494122e-05
4.78811441531996e-05 -1.4567445520232795e-05 -6.790625932756763e-07
4.7095460701491166e-05 -1.393813558063346e-05 3.025320932800442e-06
5.2869614672022135e-05 -1.9945032803257045e-05 5.847423240189094e-06
4.2647057214317194e-05 -2.5546067349952524e-06 -8.967418862597187e-06
4.888302046611732e-05 -1.2914913863919036e-05 3.739158234162782e-06
4.79558206723043e-05 -1.4508405534432441e-05 3.663726196093542e-07
4.7623587155510404e-05 -1.0625470158636967e-05 9.731717244694674e-06
5.601432056100941e-05 -2.28866972308127e-05 2.7221855665842772e-05
3.468021584293442e-05 -8.202359134055406e-06 -4.7565069227563504e-05
3.480834322930487e-05 -7.837998461510505e-06 -4.873170635284156e-05
4.71388319982205e-05 -1.3926789357774191e-05 -3.21971968977575e-06
4.856153190561851e-05 -1.55867613180608e-05 9.560698084967382e-07
4.341159296055326e-05 -1.4327783739394296e-05 -9.686915497052767e-06
5.5949528756282834e-05 -2.3911240885466354e-05 -2.4368712851509962e-05
4.808585778996906e-05 -1.4446799468285676e-05 -7.575853866709662e-09
5.0467320006309384e-05 -6.822813289734489e-06 1.898368778823499e-05
3.982110758316976e-05 -1.0071151318063928e-05 5.158610565092683e-05
8.438865474403136e-05 -2.5011936465265845e-05 1.1058551983187294e-05
4.8085888689460737e-05 -1.4443304950105409e-05 4.977289233450944e-08
4.8855735712180806e-05 -1.3627112337448004e-05 -5.248478653337424e-06
8.823579156683707e-05 -1.650106770840711e-05 -4.801012833931115e-06
1.3205348459298915e-05 -1.6428934440606924e-06 2.0671753043901198e-05
1.2446625413413533e-05 -1.4389520314631532e-06 -1.9409802873177135e-05
4.8183327408687885e-05 -1.6539817866971886e-05 -9.09432236845008e-06
0.00010229802756653613 -1.2052357102961446e-05 1.989572665966359e-05
0.00012033636670915711 -2.5496317163954064e-05 5.628463522254443e-06
0.00012124932067759959 -2.810313545898264e-05 -2.2896221978984e-05
0.00011932827090852778 -2.803280426806806e-05 -5.3087583917883635e-06
1.1404903692480856e-05 -1.140634430627932e-06 -1.8607364152081905e-05
7.655622509499919e-05 -2.606583580425735e-05 -3.1347787044789574e-05
3.863805463032515e-05 -1.0691896827833064e-05 4.873326079918534e-05
0.00011820718567496644 -2.4729070383794228e-05 6.75086776386807e-06
1.3223262511458782e-05 -1.7555370728035526e-06 1.9950729651588932e-05
4.799105821879585e-05 -1.4788203416306182e-05 -9.290092367649258e-07
5.4108176668684806e-05 -2.2898363807180067e-05 2.3345736427940165e-05
2.1705396416784564e-05 1.473567966456839e-05 -6.644757641383627e-05
4.211667855333681e-05 -1.5523766403129826e-05 -3.713969906603954e-05
4.343625090418455e-05 -1.6370363177989527e-05 2.3736959008859176e-05
3.289663998994063e-05 6.915090350399239e-06 6.837804364618423e-05
5.742924882652618e-05 -2.4410468635789285e-05 -1.6747357334018075e-05
4.7627052212909455e-05 -1.0679821430166038e-05 -9.639762720066412e-06
6.746059603905488e-05 -2.9322167142277898e-05 -1.712549460572337e-05
4.964658007877127e-05 -1.726511619693991e-05 4.843239285029325e-06
0.00012356084557927467 -3.481525963818275e-05 -8.439574953621383e-06
4.9350494818157226e-05 -1.722598867126458e-05 8.121600577182227e-06
4.9447841960453156e-05 -1.705985074772648e-05 -3.2715501899846442e-06
4.7447241323520156e-05 -1.578601163913646e-05 5.6815787834294175e-06
4.8194536481565755e-05 -1.5021004950959318e-05 1.1180965220976869e-06
6.237651886703065e-05 -2.3224073029558458e-05 4.1367368384181814e-05
6.95215526840844e-05 -1.5769940185002267e-05 -5.427661120756829e-05
4.363634059698164e-05 -5.137425836421041e-06 -4.776164992387572e-06
7.843959847903482e-05 -3.0358534423154866e-05 -1.9522819350988126e-05
5.013020014461544e-05 -1.6186320089136332e-05 5.518616005110827e-06
4.9624211609592314e-05 -1.9169506261990357e-05 -1.8956680070184692e-05
8.70979659144277e-05 -2.51788380919785e-05 -2.665401633793132e-05
5.7456386401717955e-05 -2.4128207612758653e-05 8.309405869172224e-06
6.30587391353135e-05 -2.8278619637072293e-05 1.396581135956759e-05
2.992449247433786e-05 8.866645058046425e-06 6.666882759855255e-05
4.898486424221433e-05 -1.7997599935419157e-05 -1.1870448871559832e-05
4.804079683485168e-05 -1.4475336347577854e-05 1.536897687683961e-07
4.4097478741997496e-05 -3.966601050282231e-06 1.4518564649523328e-05
0.00012152823771372944 -2.7115820224089014e-05 -8.56987653764115e-06
7.6391922651462e-05 -1.2177320876968287e-05 -4.706213734195616e-05
4.80318198015894e-05 -1.4473964826601664e-05 -2.0040244131075112e-07
4.821539729482367e-05 -1.2833136842773216e-05 6.28739467404361e-06
6.219895923464091e-05 -2.0065054243331843e-05 -5.035303538067911e-05
2.5681811797803672e-05 1.1397081220463814e-05 -6.538254441031786e-05
4.8169561221737315e-05 -1.4828166464579676e-05 -5.701971208657539e-07
4.876119793804873e-05 -1.934427876854845e-05 3.776611789081088e-05
4.557812441981748e-05 -1.7347912291922255e-05 2.3255749338143666e-05
4.8225840531578285e-05 -1.535341604496348e-05 -2.0123528613183734e-06
6.228537372104678e-05 -2.4719567976960157e-05 -3.8460105765021525e-05
POINT_DATA 199
VECTORS Displacement float
0.0 0.0 0
3.7845107111431104e-06 -2.1012630464647397e-07 0
6.947843230810727e-06 7.31955054813144e-08 0
1.3989979532533841e-05 3.225039386382912e-08 0
1.7190260524266927e-05 -2.682851650681993e-07 0
2.0995498397305544e-05 6.498285968022926e-07 0
2.103590665268053e-05 -8.077504337640438e-07 0
1.7215941713031984e-05 1.8555423192079023e-07 0
1.4058649616909925e-05 -1.0437729207480778e-07 0
6.9262770666716595e-06 -6.269151551232422e-08 0
3.7615963644999e-06 2.1949330023728113e-07 0
0.0 0.0 0
8.656323850824655e-07 4.782559245866783e-07 0
1.5775871899014342e-06 6.814496739756099e-07 0
2.261175408636414e-06 8.181704561555209e-07 0
2.8989440851569802e-06 9.289096622129423e-07 0
3.4431604411111433e-06 1.0167502616501533e-06 0
3.7635716723597213e-06 1.0289530709780683e-06 0
3.820697708002421e-06 6.418141938157736e-07 0
4.683790069964918e-06 -2.5290589414870594e-07 0
8.942964788738167e-06 5.505735094718087e-07 0
1.0491821254596375e-05 6.498158043068968e-07 0
1.2033521488114156e-05 5.488127751806047e-07 0
1.6281117253564434e-05 -3.209040156664943e-07 0
1.7147149708391968e-05 6.060861385082107e-07 0
1.718463502362695e-05 9.662622564468038e-07 0
1.7529492789063757e-05 9.678580318111022e-07 0
1.8087134180164275e-05 8.760578989966672e-07 0
1.8764111682358557e-05 7.837979627528412e-07 0
1.9497130826663108e-05 7.204449551807857e-07 0
2.024352853812449e-05 6.78826028520372e-07 0
2.101781557469307e-05 4.7038114094354935e-07 0
2.103487556642332e-05 2.908750347433804e-07 0
2.104456377539975e-05 1.0783202459335456e-07 0
2.1050262593569417e-05 -7.807559697665652e-08 0
2.1053543968725387e-05 -2.646722437294009e-07 0
2.105366125330432e-05 -4.4819878549183295e-07 0
2.1047496162581242e-05 -6.283316952980628e-07 0
2.028441050482664e-05 -8.234784751516478e-07 0
1.9535136055563617e-05 -8.519356323564927e-07 0
1.880959886544164e-05 -9.04841791785486e-07 0
1.812833675780957e-05 -9.800508427435926e-07 0
1.756356309224702e-05 -1.0587113691653315e-06 0
1.7220266966462172e-05 -1.0485060311480524e-06 0
1.718219459158298e-05 -6.769695300532246e-07 0
1.6310077617014352e-05 2.2087053880916802e-07 0
1.207058241711803e-05 -4.975978572087256e-07 0
1.0486328644188068e-05 -6.266188271452303e-07 0
8.930094738495468e-06 -5.048712277299171e-07 0
4.661677075973284e-06 2.7082249605111954e-07 0
3.8060149481113553e-06 -6.438611899826843e-07 0
3.7742139161559094e-06 -1.0103395715148922e-06 0
3.4401539539907798e-06 -1.0142453567955765e-06 0
2.889006774032923e-06 -9.324026974796434e-07 0
2.25685838742855e-06 -8.163371890784989e-07 0
1.576854213371977e-06 -6.811235581472881e-07 0
8.645236893751327e-07 -4.775929149374696e-07 0
0.0 0.0 0
0.0 0.0 0
0.0 0.0 0
0.0 0.0 0
0.0 0.0 0
0.0 0.0 0
0.0 0.0 0
2.0326420504222193e-05 6.617413168763962e-08 0
4.835764155706087e-07 -3.146905575524127e-08 0
3.4287684612626094e-06 8.602211396623178e-07 0
1.7917336627874977e-05 -8.326087631844808e-07 0
1.845058135254147e-05 6.355084202358966e-07 0
2.6147417939218247e-06 -6.579213308991505e-07 0
3.7645128506162253e-06 -9.029700027637878e-07 0
1.7243164137074714e-05 8.445215517597917e-07 0
1.9425157167766426e-05 -6.546760232963519e-07 0
1.9947253848852213e-06 5.962903975159517e-07 0
2.0501656389433034e-05 -3.384656993468248e-07 0
5.195272632065433e-07 7.77236339861672e-08 0
4.346377906511611e-06 8.527578808224762e-07 0
1.682980210497877e-05 -9.30639648239039e-07 0
8.246451981149594e-06 -5.0349363629545045e-08 0
7.284102642192868e-06 -1.1495130410634357e-07 0
1.0488665473757199e-05 3.1547972263427994e-07 0
6.158017512605992e-06 -3.8328276955328225e-07 0
6.37219657928825e-06 -1.0910869451390025e-07 0
1.990430099303148e-05 4.653090641624272e-07 0
1.3336738772881577e-06 -4.742245709239281e-07 0
1.5589168198202463e-05 4.99859623478659e-07 0
1.4651686509525196e-05 3.0917523396534565e-07 0
1.2983836600288414e-05 6.1867611530843325e-09 0
1.4398959215032328e-05 5.3438375891178626e-08 0
1.5779457642617015e-05 3.038158387875226e-07 0
1.554398558232063e-05 -3.342342675323667e-07 0
1.6366704380122635e-05 3.7163596958146906e-08 0
1.6800497776742512e-05 -4.660551568915644e-07 0
1.7149350436388036e-05 -1.6299966591048418e-07 0
1.7032409660795137e-05 3.138232408168117e-07 0
1.790608836820448e-05 1.5634941723526684e-07 0
1.774041399228519e-05 -3.480901432855767e-07 0
1.8376255604040332e-05 -1.5039613123197116e-07 0
1.8824686279760144e-05 2.5063429013445723e-07 0
1.923626648462632e-05 1.9909028243529077e-09 0
1.92799746564755e-05 -2.7343304932236785e-07 0
6.896990666937538e-06 1.5985339442873247e-07 0
5.461158609807832e-06 -1.99909206692371e-08 0
4.9339424639556275e-06 -3.9971149006562216e-07 0
4.514242233325249e-06 5.890361705838794e-08 0
4.154697720746792e-06 -3.1893588130815605e-07 0
3.599789221515139e-06 7.78624974518601e-08 0
3.377911098404769e-06 -2.445892559649146e-07 0
2.7634703043833253e-06 9.261494898349794e-08 0
2.606164050173433e-06 -1.8775560255038538e-07 0
1.8694811254635071e-06 1.156266388393682e-07 0
1.8192601052576284e-06 -1.4734957442537925e-07 0
4.641535815084153e-06 5.256540745482761e-07 0
3.1673382113408397e-06 -5.036013190708015e-07 0
1.0775206307165165e-06 3.874794536800793e-08 0
2.3352981713535335e-06 3.863100784670785e-07 0
1.8597728234679056e-06 -3.6927834756223074e-07 0
8.10735083191731e-06 4.628167387760543e-08 0
1.0658766576818592e-05 -2.586809825284286e-07 0
1.9799651371493498e-05 2.018468892156801e-07 0
1.4808432249970229e-05 -3.8428639596448773e-07 0
1.6758010148860052e-05 8.429323047642085e-07 0
1.6795336957783203e-05 6.35739667527554e-07 0
1.170394530302123e-06 -2.798497109741578e-07 0
1.9827898749666725e-05 -5.7764683878956854e-08 0
2.051161992818453e-05 2.290095766237884e-07 0
1.5356936473263092e-06 2.282651824387617e-07 0
1.7842563049201958e-05 7.425817379084688e-07 0
1.8148268137537754e-05 4.5801789938907047e-07 0
5.511502722275892e-06 5.780572927501635e-07 0
1.8988695579316654e-05 5.20176114056506e-07 0
2.0127858543863027e-06 -5.94365670672977e-07 0
1.7338658269702848e-05 -9.336336835630801e-07 0
3.790516121838036e-06 9.215768192469455e-07 0
3.5831252119728132e-06 6.694911973996954e-07 0
3.121933674430596e-06 5.746916978403947e-07 0
1.869445617941247e-05 -3.733496073208522e-07 0
4.185468875440903e-06 -8.870421173676654e-07 0
4.325044695353713e-06 -6.990923129373353e-07 0
2.7646862622257456e-06 6.848854863768683e-07 0
1.9873223460817414e-05 -2.0987134212427393e-07 0
2.0037645158540515e-05 -5.973327566490771e-07 0
1.8658224288714917e-05 -6.863736665762614e-07 0
1.3251647541107316e-06 4.824637259981879e-07 0
1.9365007956869655e-05 -4.6659795239380684e-07 0
1.5404611999388813e-05 -5.853923068228574e-07 0
1.6206042002086678e-05 -7.289225924894156e-07 0
3.3207518691819328e-06 -7.899838624606025e-07 0
1.7376261042084505e-05 -4.964379524655029e-07 0
9.078215422684465e-06 2.0996706002678013e-07 0
1.2293350079685422e-05 -4.317416240099173e-08 0
9.612409274620942e-06 -2.5236349031993226e-07 0
5.515195486840912e-07 -1.5202000171661762e-07 0
2.5470196990225102e-06 -4.3627123562708825e-07 0
2.0560643623271188e-05 -5.208040027265259e-07 0
4.996116211430469e-07 1.159112308993511e-08 0
5.574979339550313e-07 1.569248984502996e-07 0
2.045009278991176e-05 -1.449771503990221e-07 0
5.764804890611563e-06 3.5589328195753367e-07 0
1.7491683891095914e-05 5.596405037758465e-07 0
1.8160766827987192e-05 -5.245613168138759e-07 0
2.0540704527327103e-05 3.7509955607136024e-07 0
6.409740199699535e-07 -2.7007225233781294e-07 0
1.0857154672348205e-06 1.6312761988571432e-07 0
1.994134452823482e-05 -4.0274992063930437e-07 0
9.06090257241839e-06 -2.772789051813182e-08 0
1.0549288998832305e-05 1.0602671297081328e-08 0
1.1534338987002006e-05 5.1696488417344454e-08 0
7.880865201369295e-06 7.702203259645145e-09 0
9.651882705188347e-07 -1.0170391353155804e-07 0
1.3780657143561762e-05 -1.6641518173266007e-07 0
1.6968486160247494e-05 -7.322213301337559e-07 0
1.8642103728553852e-05 4.067820160759122e-07 0
4.877186949152967e-06 6.958567118032263e-07 0
1.6531443923117282e-05 4.333362500952642e-07 0
3.7467335380370534e-06 -6.023440379589849e-07 0
1.1831451400260909e-05 1.9476064469851828e-07 0
5.058734531066115e-07 -8.980985534668162e-08 0
4.589300569285193e-06 6.411172608868805e-07 0
1.6416327515808558e-05 5.673293852542496e-07 0
4.5168878595017095e-06 -6.071756386373426e-07 0
1.939922826265119e-05 3.640612876484921e-07 0
1.5837185337287727e-05 6.141170641602516e-07 0
1.6436377390633887e-05 -6.780527697965486e-07 0
1.1529576645475606e-06 2.978004482843971e-07 0
1.891802317959932e-05 -5.053096502105705e-07 0
1.7445972846445534e-06 3.796844880744293e-07 0
4.886625418342913e-06 -7.043842348919965e-07 0
2.0434036249059826e-05 4.951868190341318e-07 0
3.693986315582932e-06 4.095213123376431e-07 0
2.065606522355599e-05 -6.448350213005289e-07 0
6.395710145261642e-07 2.7295964629518173e-07 0
4.060110942722143e-06 8.039787012833891e-07 0
1.7618256724316725e-05 -6.529236586141178e-07 0
2.971456228056583e-06 3.776851938506625e-07 0
5.542657746561639e-06 -5.306075877512089e-07 0
3.0260274626561077e-06 -6.662998997859739e-07 0
5.652039851838766e-06 -4.3634255690720327e-07 0
2.022928271534349e-05 3.1353847115469336e-07 0