# vtk DataFile Version 2.0
Really cool data
ASCII
DATASET POLYDATA
POINTS 205 float
0.0 0.0 0.0
0.125 0.0 0.0
0.125 0.025 0.0
0.175 0.025 0.0
0.175 0.0 0.0
0.3 0.0 0.0
0.3 0.1 0.0
0.175 0.1 0.0
0.175 0.07500000000000001 0.0
0.125 0.07500000000000001 0.0
0.125 0.1 0.0
0.0 0.1 0.0
0.01562500001914041 0.0 0.0
0.03125000004302709 0.0 0.0
0.04687500009029187 0.0 0.0
0.06250000012942511 0.0 0.0
0.078125000069625 0.0 0.0
0.09374999998136457 0.0 0.0
0.1093749999689982 0.0 0.0
0.125 0.01250000001946666 0.0
0.1374999999728949 0.025 0.0
0.1500000000514996 0.025 0.0
0.1624999999674739 0.025 0.0
0.175 0.01249999996954493 0.0
0.1906249999454511 0.0 0.0
0.2062499999464675 0.0 0.0
0.2218749999813653 0.0 0.0
0.2375000000284603 0.0 0.0
0.253125000025411 0.0 0.0
0.2687499999464675 0.0 0.0
0.2843749999108921 0.0 0.0
0.2999999999999999 0.01250000000785633 0.0
0.3 0.02500000002464271 0.0
0.3 0.03750000005532045 0.0
0.2999999999999999 0.05000000007786666 0.0
0.3 0.06250000001503192 0.0
0.2999999999999999 0.0749999999440657 0.0
0.3 0.08749999994628305 0.0
0.2843749999369807 0.1 0.0
0.2687499999742503 0.1 0.0
0.253124999894968 0.1 0.0
0.2374999998970008 0.1 0.0
0.2218749999180072 0.09999999999999999 0.0
0.2062499998726061 0.09999999999999999 0.0
0.1906249999261387 0.1 0.0
0.175 0.08749999993088212 0.0
0.1624999999105533 0.07500000000000001 0.0
0.1499999998834483 0.07500000000000001 0.0
0.1374999998590537 0.075 0.0
0.125 0.08749999998238171 0.0
0.1093749999923767 0.1 0.0
0.09374999993596433 0.1 0.0
0.07812499987955196 0.1 0.0
0.06249999985295514 0.1 0.0
0.04687499989276568 0.1 0.0
0.03124999993257619 0.09999999999999999 0.0
0.0156249999764525 0.09999999999999999 0.0
0.0 0.08749999998398685 0.0
0.0 0.07499999993815812 0.0
0.0 0.06249999990588191 0.0
0.0 0.04999999987631621 0.0
0.0 0.03749999991857893 0.0
0.0 0.0249999999459339 0.0
0.0 0.01249999997735459 0.0
0.2887672792584315 0.04351766043146041 0.0
0.01181553457412961 0.05114594377614913 0.0
0.07392637067936991 0.01483904811720952 0.0
0.225906918980133 0.08790388796960827 0.0
0.2439286617602515 0.01559581715484015 0.0
0.05997889432704034 0.0841403497024493 0.0
0.2163484223811073 0.01306257628688848 0.0
0.09173920571254982 0.08797343984904159 0.0
0.2562422138215353 0.08810472789912022 0.0
0.04258698243751573 0.01323482301763931 0.0
0.1307453472711868 0.06623815599378152 0.0
0.1179625717680881 0.07028673305514879 0.0
0.1654368452939432 0.0622461065240743 0.0
0.1793624136049786 0.06659947480098474 0.0
0.2874815156065919 0.06364527145099586 0.0
0.01111840864019526 0.03074316574982772 0.0
0.1453923452021462 0.03504780790408007 0.0
0.2719697643611891 0.01273058062405156 0.0
0.101755101598882 0.01589758059649074 0.0
0.02824566424430988 0.08794729616434749 0.0
0.1685245732680072 0.03796313084029442 0.0
0.1845253728710758 0.03255296808973087 0.0
0.1255620449386358 0.05813886737557514 0.0
0.1104081519170761 0.05347109352309404 0.0
0.1065133963133213 0.06555649479578073 0.0
0.09972181802397131 0.04995004157890749 0.0
0.188997496354996 0.02579288896385199 0.0
0.1959367546509697 0.03932417636689377 0.0
0.1980256548401701 0.08502606785589029 0.0
0.1145673466650958 0.0415577465391196 0.0
0.09699457533979305 0.03504858895060172 0.0
0.08198879421180977 0.04437230866552219 0.0
0.06887750821841368 0.05025150737694422 0.0
0.06422178240260773 0.04096717471974791 0.0
0.05336839054838426 0.05509028376652517 0.0
0.05315414432060124 0.04038760538362939 0.0
0.03766226757869513 0.05236296461948145 0.0
0.03834222398566089 0.03966727058782613 0.0
0.1154024198978268 0.08151872486616148 0.0
0.1401359633545406 0.05570418085766487 0.0
0.07417123444096946 0.06285610883401714 0.0
0.1736609220874623 0.05167415017300278 0.0
0.1599834948456241 0.05471486693849312 0.0
0.04676845296240454 0.06417520748448607 0.0
0.03736551222295911 0.06395789242328825 0.0
0.05528975085074966 0.02762965731728197 0.0
0.1868337337814708 0.05590540630263925 0.0
0.1936283152592155 0.0638337696539967 0.0
0.2007231704690148 0.05270812634296573 0.0
0.2026316940463435 0.06359480748167094 0.0
0.2140923300773684 0.0513138072525573 0.0
0.2154839212199299 0.06355869753422323 0.0
0.2284844447804543 0.05016269072510202 0.0
0.2298291041230638 0.06325115631832894 0.0
0.245514617449695 0.04749810535700199 0.0
0.2248310724397259 0.03635220294509731 0.0
0.2450620309844245 0.06301786517932728 0.0
0.2619144171918503 0.05099858553166976 0.0
0.2530245097013634 0.03848387597087019 0.0
0.2630866380321098 0.03883885246085627 0.0
0.2601134154021429 0.06343506214209484 0.0
0.2615556842997697 0.02675096059493692 0.0
0.08484173592284247 0.02735016957153687 0.0
0.1972626723741159 0.02602389302571967 0.0
0.2143898416634045 0.0752075683800108 0.0
0.1286897761160497 0.04450460321885986 0.0
0.243539623686315 0.07580052865281066 0.0
0.03929038582277049 0.07501849763811472 0.0
0.02441605481272329 0.05171202329836007 0.0
0.07713083069996571 0.08713331808353285 0.0
0.06656581179539904 0.07500413708486689 0.0
0.2314593342366766 0.01879761486389943 0.0
0.2756346818652423 0.05184022831506886 0.0
0.2112922415169367 0.03814295366179354 0.0
0.2747447196912369 0.02512041697136574 0.0
0.2710887795497304 0.08808707861950851 0.0
0.027401618372994 0.01226599506245627 0.0
0.0865929307907805 0.01731547609482902 0.0
0.1053438800669694 0.08887233198651374 0.0
0.09084898707675458 0.07539484583729242 0.0
0.2576716879730601 0.01377176789105498 0.0
0.1393579831691132 0.06549842813329715 0.0
0.1574421660779657 0.03588128610027977 0.0
0.1535427529540838 0.04594829665818918 0.0
0.151133922043088 0.06467121216218583 0.0
0.1153262295493684 0.02065667458653297 0.0
0.1091950456236082 0.025573704989709 0.0
0.1867624148526468 0.08064509072719063 0.0
0.2875518370864629 0.02421779194038838 0.0
0.01282774169607733 0.075727628341656 0.0
0.286666277931299 0.07571699218206411 0.0
0.01152800730628901 0.03918023215725625 0.0
0.01190441227961722 0.01997879994986981 0.0
0.2881446411662472 0.05179976317536011 0.0
0.01226145530581069 0.06337490133292223 0.0
0.2203353424258387 0.02284082189488318 0.0
0.2885137518992713 0.03268172542006966 0.0
0.05865550193388475 0.01404433148344266 0.0
0.07229010346257445 0.0311087331081754 0.0
0.2373815614538793 0.03286401040375219 0.0
0.195694970945912 0.01475500155669641 0.0
0.02416708901956153 0.03940809727338475 0.0
0.1199802659242492 0.03152914422657565 0.0
0.2741666004098929 0.06380454533103902 0.0
0.02616958341015267 0.07576625070525879 0.0
0.2015654125298342 0.07381015606031316 0.0
0.2787526316152035 0.03840492809305619 0.0
0.2727458945365599 0.0759354618063685 0.0
0.09091537955410316 0.05923799134932992 0.0
0.02502401858440228 0.06373332997368379 0.0
0.03976189282690783 0.02651074452160465 0.0
0.0221362248295745 0.02574570986940831 0.0
0.2110886115668302 0.08721990454741586 0.0
0.2582489496974558 0.07585755128146132 0.0
0.1042560355856094 0.0774546921297576 0.0
0.07679921059948126 0.07497652727596545 0.0
0.1516580163245541 0.05522022855373845 0.0
0.1636994047108926 0.04795119485875001 0.0
0.2491570072991541 0.02903555585399106 0.0
0.2408455480678468 0.08798387343846124 0.0
0.04319346697476647 0.08692669110782704 0.0
0.1328170481621544 0.03409356514087851 0.0
0.2284780092533973 0.07559298393797739 0.0
0.1789830982361833 0.04194564681256874 0.0
0.06189631848854926 0.06697733359673398 0.0
0.09494213383646902 0.02104785797088994 0.0
0.1129326187283003 0.01236598732016416 0.0
0.2855594787985503 0.08784076785758843 0.0
0.01351959519288005 0.01166612256319519 0.0
0.183655326711812 0.08851105445746522 0.0
0.2859973945780246 0.0123761755243969 0.0
0.01414586081197928 0.08782368735426294 0.0
0.1869029358597662 0.04566544533160533 0.0
0.1144040861902765 0.0894515921082717 0.0
0.2087613617712902 0.02533200875403417 0.0
0.1418890604582276 0.04544092361610481 0.0
0.1831643534782259 0.0112756930389995 0.0
0.1860469782920695 0.0186814691789188 0.0
0.1904406617615914 0.07080689623761975 0.0
0.05128926615714215 0.07186279840800239 0.0
0.2070270287930949 0.01294723873760919 0.0
POLYGONS 172 860
4 144 125 182 68
4 91 137 114 112
4 162 109 161 66
4 73 161 109 174
4 141 126 162 66
4 159 135 163 119
4 157 136 170 64
4 102 178 88 75
4 165 132 65 155
4 81 138 125 144
4 172 143 179 104
4 169 128 176 92
4 168 131 184 83
4 91 112 110 196
4 166 185 129 93
4 187 196 110 105
4 154 171 167 78
4 177 72 183 130
4 24 25 204 164
4 137 198 159 119
4 51 52 133 71
4 165 101 100 132
4 202 169 92 151
4 118 121 124 120
4 139 72 177 171
4 101 99 98 100
4 139 39 40 72
4 140 13 14 73
4 71 142 50 51
4 144 68 27 28
4 69 133 52 53
4 68 135 26 27
4 181 106 180 147
4 123 121 118 122
4 108 100 98 107
4 120 117 116 118
4 181 105 76 106
4 86 103 145 74
4 121 123 170 136
4 48 145 148 47
4 47 148 76 46
4 146 22 3 84
4 22 146 80 21
4 145 48 9 74
4 99 97 96 98
4 26 135 159 70
4 81 144 28 29
4 152 160 170 138
4 137 119 116 114
4 176 128 186 67
4 66 16 17 141
4 179 134 188 104
4 16 66 161 15
4 46 76 77 8
4 86 74 9 75
4 180 103 199 147
4 117 115 114 116
4 183 67 186 130
4 44 92 176 43
4 76 105 110 77
4 99 109 162 97
4 69 134 179 133
4 119 163 118 116
4 87 89 94 93
4 73 14 15 161
4 96 97 162 95
4 115 113 112 114
4 94 95 162 126
4 129 86 87 93
4 94 150 166 93
4 86 75 88 87
4 118 163 182 122
4 85 90 127 91
4 75 9 49 102
4 53 54 184 69
4 113 111 110 112
4 142 197 10 50
4 62 79 155 61
4 34 35 78 157
4 185 80 199 129
4 33 34 157 64
4 61 155 65 60
4 96 95 172 104
4 60 65 158 59
4 42 67 183 41
4 172 88 178 143
4 35 36 154 78
4 17 18 190 82
4 101 165 175 174
4 150 82 190 149
4 21 80 185 20
4 203 107 98 188
4 76 148 180 106
4 26 70 204 25
4 33 160 152 32
4 59 158 153 58
4 136 157 78 167
4 115 128 169 113
4 13 140 192 12
4 39 139 191 38
4 29 30 194 81
4 55 56 195 83
4 68 182 163 135
4 44 193 151 92
4 120 130 186 117
4 184 131 203 69
4 171 154 191 139
4 138 81 194 152
4 87 88 172 89
4 131 168 173 108
4 33 64 170 160
4 197 142 178 102
4 100 108 173 132
4 121 136 167 124
4 150 149 2 166
4 18 1 19 190
4 38 191 37 6
4 12 192 63 0
4 44 7 45 193
4 56 11 57 195
4 30 5 31 194
4 85 3 201 90
4 125 138 170 123
4 71 143 178 142
4 77 202 151 8
4 143 71 133 179
4 73 174 175 140
4 132 173 158 65
4 94 89 172 95
4 101 174 109 99
4 67 42 43 176
4 130 120 124 177
4 17 82 189 141
4 192 140 175 156
4 195 153 168 83
4 83 184 54 55
4 155 79 175 165
4 103 180 148 145
4 72 40 41 183
4 147 146 84 181
4 188 134 69 203
4 166 2 20 185
4 105 181 84 187
4 86 129 199 103
4 94 126 141 189
4 104 188 98 96
4 123 122 182 125
4 128 115 117 186
4 108 107 203 131
4 113 169 202 111
4 3 85 187 84
4 146 147 199 80
4 159 198 204 70
4 62 156 175 79
4 187 85 91 196
4 24 200 23 4
4 94 189 82 150
4 127 90 201 164
4 91 127 198 137
4 110 111 202 77
4 2 149 190 19
4 36 37 191 154
4 62 63 192 156
4 8 151 193 45
4 32 152 194 31
4 58 153 195 57
4 177 124 167 171
4 10 197 102 49
4 153 158 173 168
4 198 127 164 204
4 24 164 201 200
4 3 23 200 201
CELL_DATA 172
SCALARS Von_mises double 1
LOOKUP_TABLE default
10038689.443888817 14480624.518017285 10318258.286288232 9998693.904523151 10754818.05049801 11112553.357263302 10141704.135199318 14135050.295765614 9276464.664819406 9990818.262205975 12466710.859860998 10530004.744532803 9919203.106938316 15360615.386771062 16045844.483678825 15416085.94262663 10080426.475444956 9932785.321533095 5043609.377267281 12334125.585481418 7000040.347931553 10005537.372769872 11814967.430347623 10802983.55044777 9974684.716922872 10826250.332059514 9838992.826042822 9523975.677964853 4521820.489436963 9535879.365886917 8538886.82014388 8980458.090284443 17699806.524095744 10751241.791185409 10672808.012298968 11676560.740261214 16423065.778407246 17201885.536715224 10330481.62549512 20441789.789059296 20301261.591818854 22925575.31608278 20398604.91103127 24475488.07734387 11704990.75113802 9204115.723844709 9856242.279994946 10072308.452026786 13109000.814169077 10038364.050204158 7584284.263705198 11361603.910575368 8593190.809929244 21479995.963272635 16488351.191938013 18069528.710470878 12914556.478030352 9931617.450035937 5402184.76747348 15638129.705724081 11243549.028058039 10109896.683869945 11807228.519373378 15332058.006386349 9234131.066875795 12557380.34897092 14217172.7117068 13036878.382298231 15294757.64062299 15103229.681247434 15441464.990592452 10911413.175723268 14893235.727500886 12404390.397445913 9267711.54075942 15263924.408188652 1165394.4232011016 8634870.300213616 10046539.503343007 18107817.060953356 10047600.651199339 8548663.56117617 13205664.276590368 8573228.86395034 8635950.30982735 13629925.094669843 10024041.940554777 4501742.73198271 10004348.486262264 10739591.690359851 20456136.28884799 10907990.21086216 18918150.28972769 6900839.407498601 10015739.083943319 8729110.033719355 10140723.244731208 13053345.034544349 9826618.049068213 9979495.1249493 9981664.323771061 9806542.62307755 10340431.465875868 6322586.583315057 11017592.721645778 9943318.03257599 9997085.124614242 9998882.036488395 14781729.895729369 10029434.67984267 10073250.183060786 9064103.565054974 10015728.949176384 10341928.909084124 14703141.729332147 399496.35815186554 10000779.351351036 10567109.01444926 591217.990311967 10558956.840907509 10001456.309987504 14763666.810612634 10198169.824291535 10010583.24754395 15021348.70490368 10221263.053598335 9944029.384413416 9294654.38077764 14429473.372741943 10607922.88358323 7227341.328218387 10497963.426094506 8611259.630883532 9906046.864055652 9864258.751298157 9503952.973041736 9333827.795523841 19006936.584002588 9454750.167364739 17666939.01699248 10541850.701558316 22518339.517692327 15801254.993224103 16467014.918081747 11770320.286312347 11808720.218376674 10409829.46973298 11900299.914209118 10377431.094176529 14363511.492249181 15784771.811690142 18996128.888709314 10357341.035855139 9056177.854179032 15186996.035825467 646442.310083306 12497620.638517486 11631755.450181441 13747706.711784145 15415790.436416445 10149286.157815652 9997737.952378374 9191342.698463527 10064080.119741928 9997126.334182007 9160288.645150842 10205086.170847481 1605959.4109561122 9455742.502481848 10824482.05017946 5640486.397282572 10002383.877544716
SCALARS Stress double 1
LOOKUP_TABLE default
9838425.321330575 -332883.642800313 -445275.40819092654
13603542.108835477 -1580991.7925656908 -456619.84658743144
9817209.15455058 -709308.1345403581 934935.6728018116
9822805.558525752 -284549.57849591994 451045.86307673523
9957726.966084918 -927426.2579256634 1462259.444231365
10341589.304456737 -1066995.8256854261 -1206573.6702375307
10042960.44334229 -194627.40037104324 -14061.66525039406
12824564.852667874 -170495.2639286282 -3322378.0137722613
9872917.678987265 1345894.1839556394 135110.4609814938
9899351.537268382 -168425.11980144953 -202996.05941110093
11360678.454163779 -1516558.9688638002 -1508285.4301484234
9163163.320649017 -797205.0405094816 2515086.6132301893
9943475.353716373 84140.14775565459 -340320.4802005612
15147357.64388979 -404532.5294377391 -267591.7282275024
17080648.409475647 2824773.6477208654 1413057.4957041603
16171146.948690454 1646441.433024532 -145818.51480769948
10002463.434190894 -152189.51921058085 82242.37309573455
9734529.146956189 -309018.3080463039 514951.93607303797
4200610.533493272 64985.83988554959 -1639270.5431104943
11232906.899682548 -1426330.513766524 -1622364.5231240273
6671902.230962754 -174764.3659218104 -1047175.907964105
10211811.085433973 429996.5928326009 109299.85794688885
10103986.03107116 -509672.6668858968 3270750.674798755
10388187.190395175 -780497.4587855818 155874.41728475335
9884820.973611748 -162887.90032094507 222110.57317543766
10588861.145345539 -459039.39308175846 64016.50574386509
9818251.321266014 -38488.22827029415 97215.19359457654
9517829.86006187 -9971.705110981171 85671.93592782332
3909718.7729398087 105229.91748711318 -1361531.699172406
9472640.866661552 -99407.20480605088 -288986.59077749774
8401318.627366308 -158567.85510954715 -569535.0762353897
8783959.053695183 -236673.30632928718 -672246.9706226002
18922004.93323824 2777575.536846395 166585.758386659
10421873.419205269 -624477.8788980421 -158695.15681764937
10538086.052689023 -248914.4263625225 -239814.6347346563
11011256.234473526 -1212698.0844725773 300189.3138844073
17833396.988455974 3441483.8022435308 636809.1099813865
18284287.846056443 3314780.123057259 -1933072.7381516062
10132425.66103871 -384640.07157859113 -50053.04528171682
20630451.901170857 429598.57836895814 -556621.3563037165
20596648.710786365 780759.1562665623 1063127.6676517574
23284484.908873 2286961.8980099075 -3237040.8904985944
20611545.785372782 461406.70488401706 -433847.8726901913
24775591.082744297 2427803.8686000477 -3627471.4507488213
11145975.82439701 -1044879.1136110584 109638.35155809036
8729752.336245982 -410444.4475517408 -1259050.8841045292
9828992.274415484 -50946.8410498026 -104993.75178766443
9995633.789357569 -150023.86318707914 -74413.14000267712
12125394.674901964 -1732689.4741234563 -519278.27710235515
9188831.036291497 -741228.4102854659 1729517.7375298361
7071843.596661272 -383106.78561922035 1245572.6740661624
10568680.551636765 -1198292.163014457 -1047021.7495169842
8448007.254060391 -166102.54541738567 589710.710715375
22216001.197635725 4130428.2906712815 3765664.1449099258
17657904.218754746 4670408.020386774 -2628120.3701230753
19293779.303667847 2767936.7151177004 12033.965725288817
11946612.596562428 -1687984.4355250532 591390.7104083614
9505721.904849378 -516557.3227504349 1016725.875192648
4598389.76065474 -43161.625350410905 1616382.274201733
16742293.584456323 2788257.1466950104 1025369.5346480644
10680989.745757602 -963137.2411241494 610726.4679383319
9531466.018914124 -706291.0844056176 -1173361.2575879109
11058642.665156493 -1329971.9396074463 -462081.4928622804
14943176.935613422 -721740.8693404816 394738.0513083872
9172050.36415939 -107073.51467838214 222950.1220161481
11712425.222046455 -1488675.6826701823 533772.3439082816
13229675.87775778 -1675236.6413005046 843488.8848643993
11951158.697444031 -1650863.6125134723 1248321.5471500852
16215959.647530396 2055692.3316337853 164739.1172272144
14596183.659605166 -198950.64903880548 2009599.280641755
15687280.88041465 832959.6132521422 -1254473.2403799477
10431461.413346875 -861053.0791377501 -416371.5881441192
14153342.33757713 -519801.2663313816 -2149748.239824196
10436863.183087334 3712571.4833971956 -4827186.953084187
9205029.039564427 -104724.02846640482 -246956.634647517
14650022.64724853 -981589.931297601 1003392.7873231986
958042.3426914096 452494.4142250162 -472248.74977517745
9522638.553815417 2413260.7131978404 587968.9087418105
10005940.423369782 -80663.40643027518 12811.609081328841
19322183.017453413 3272774.523518709 1535401.9440614055
10008596.844976962 -77548.65080367848 -5804.185018631889
9458413.518824616 2307634.4448176976 199538.20649766587
12223856.299147848 -1770638.5309230918 -250142.8904118965
9477664.632683182 2295705.3692367054 -232227.40779314918
8521144.519911693 -124343.71048886258 546114.0720369151
12437844.422082102 -1289945.5588660783 -2110827.839136543
9999002.524766749 -49749.261982685915 21964.74805524868
3619918.6067748987 313833.8682333147 1653222.9399456545
10188449.697783941 434079.69931383105 414992.12291163846
8529120.97576263 409183.9186549545 3912180.667296744
20701545.211286798 669078.0836398002 1049257.268947197
10509531.344384162 -713160.9572989249 -420482.01560113207
19908061.70242217 2334519.900523574 929385.5849414112
6481946.442055591 -185090.64369490443 -1207193.5311110558
9997030.812536828 -37185.08979634136 -20664.877246806333
9554468.691601343 2247673.15031382 -666527.8576259586
10039947.97304867 -198150.02980313008 40960.14451186756
11793988.485755399 -1478286.6459520846 1972428.7143965098
9831278.210766912 23606.812141945014 215962.09623463784
9969960.283798425 -18900.099366034257 21790.17036510615
9970856.64818429 -21435.731694881746 -21971.764693402904
9821330.146211857 44393.371364712526 -218924.3114274957
9912217.058188586 -639980.6127496171 -799848.7274747337
4776790.093563125 601660.0176836738 2560558.94554542
10406530.386326957 -953417.987087462 868081.3300832766
9775486.155380512 -273811.9083166376 -431210.096840343
9956007.867970437 -80061.37684526178 73295.74757965308
9960055.38332668 -75672.67245894302 -71898.95368515627
14104337.60107405 -1120066.32233228 -915579.4946439109
10169085.292525858 340608.894782252 -419098.55395998625
10018351.780288368 -108636.59799012232 -30742.433352642816
7133013.681796566 946913.0829990288 -3518322.935864699
10214701.464427717 422941.45818256936 -196673.69863408493
10138916.306597903 -392343.7383639074 93087.3293030201
13730703.213804724 1235629.9211674267 3789874.773428255
117658.65130604657 444899.85595363064 -7398.584090735933
10000761.442680456 -23.280717360007703 -6464.661956784269
11072408.843443895 1963342.4674557233 1522035.0611085175
-266573.1818581329 308114.3900605759 -183854.9610294535
11050624.447665613 1901477.6913150162 -1502461.018525974
10001437.335954713 -25.52558071315156 6435.381688122788
14376894.574647363 1302241.8217277508 -3071216.897999879
10052345.382420832 -277926.30946416914 -165293.46682514966
8533140.733658202 -507113.9793031462 -2757586.3017130806
14438277.426463258 1304033.8322067244 3381545.9915127577
9222982.920496566 -836974.4475738123 -1914060.0128458324
9980192.280954296 117429.01923545849 381949.844016581
9877006.379936451 1324172.3219562254 -231495.9774060801
13356009.239816291 -1925762.194647498 364079.34340203414
10376516.783595597 -405263.8336504777 402683.3318643286
6911390.554984852 -172217.83984099174 1040387.673738863
10165886.484111069 -579200.2898574043 461313.6004065964
7729822.378018597 -400818.5161318176 1927409.9214899144
10230617.101801453 920913.3360921242 824149.7724126041
10176466.762522127 842209.8716327586 -731329.4382396592
9494701.857358038 -16653.675175655648 -76069.54745856501
9851910.671984317 1228271.399340478 466321.38579622493
19909291.108794503 2030467.955213064 -628793.3799059457
9410375.443414679 -68111.93695725301 252676.74102136862
18749200.47968722 2666101.9753594687 -1075080.8178794154
10138478.100577181 -636387.2244417941 -703536.6325784556
23209578.32687786 4524166.7069080565 4200277.993916029
17210812.535839703 3447073.8406985584 -551426.8834288489
17844422.553840574 3240388.9354061023 -143658.13793692912
10475473.141544579 -1269175.8302964342 2152430.9894301402
11097585.004351947 -1268324.743431915 -449255.29450436984
10136735.908772958 -498451.85445548623 -321457.9504126697
10926296.201480046 -1316537.5985577367 1427706.5939243329
10250835.136477495 -209478.40927265002 -374274.97782751825
13321191.659366457 -1084442.4209516498 2100336.0417638007
16730712.900593236 3850314.7970710658 -2505717.0893251486
19886698.801080868 1928562.6091138234 -42870.11681263716
9182575.999146098 -852087.449099284 -2191224.9673587913
9702016.703494927 1749947.343908949 774797.1489397325
15328273.897494743 549749.2793221214 -1127438.2723449434
-321187.2444032603 305025.906591861 203072.38462877285
11069373.73160352 -1028986.9649102853 2658974.198250681
9747978.246596836 -189214.49876173658 -3577447.6009341627
12568666.132297184 -1354646.4325987897 -2013860.785662402
15423006.065161398 291352.70018926566 1181260.1688756088
6110778.034472368 3991172.402437391 4970785.076466536
9990735.335599028 -13952.979792026963 11201.25810956898
9868893.39564798 2265196.9733913164 1198553.8325021316
6056302.540980137 3995329.765523657 4927513.709245851
9990735.381782398 -12738.34775248401 -10226.529177409535
9816814.198350452 2123339.6347866068 -1136794.6938039034
10035286.943967402 -319189.5415535484 209570.27796540546
515865.0556330718 437559.9601070301 -884543.582587416
9944240.69618108 1193180.504919369 -567079.5556319428
9282753.76095156 -703694.1654118153 -2826805.566313688
4207979.729653627 664338.8251012891 -2342517.991952612
5863299.045267578 4209167.761416698 -4920430.997811293
SCALARS Strain double 1
LOOKUP_TABLE default
4.778024237582053e-05 -1.5790438649997527e-05 -5.565942602386581e-06
6.768192137790953e-05 -2.722141550584776e-05 -5.707748082342893e-06
4.8221161514003314e-05 -1.7569571542815063e-05 1.1686695910022646e-05
4.763543476958908e-05 -1.553553483679637e-05 5.638073288459191e-06
4.9211321362801055e-05 -1.882088628726509e-05 1.827824305289206e-05
5.1258115635395996e-05 -2.0045541427992536e-05 -1.5082170877969134e-05
4.856417626660388e-05 -1.5420747756604474e-05 -1.7577081562992576e-07
6.190246842233876e-05 -1.9316657306389378e-05 -4.152972517215327e-05
4.552475684519506e-05 -7.769139998752594e-06 1.6888807622686722e-06
4.783595708273469e-05 -1.5087647023951752e-05 -2.5374507426387616e-06
5.6805991080879415e-05 -2.367674281304295e-05 -1.885356787685529e-05
4.520348477308588e-05 -1.7048817484154744e-05 3.1438582665377365e-05
4.768381398745036e-05 -1.393703104980412e-05 -4.254006002507015e-06
7.340729520538997e-05 -2.3792018377907095e-05 -3.3448966028437796e-06
7.804430920749705e-05 -1.105490805347033e-05 1.7663218696302e-05
7.537122364799564e-05 -1.540818582491637e-05 -1.8227314350962426e-06
4.830827062477916e-05 -1.5158310333980044e-05 1.028029663696682e-06
4.724632038158694e-05 -1.552585121217866e-05 6.436899200912973e-06
2.0101513372728882e-05 -5.746140962319385e-06 -2.049088178888118e-05
5.606156756640627e-05 -2.305866626765042e-05 -2.027955653905034e-05
3.2328517022785085e-05 -1.0463149207743443e-05 -1.3089698849551312e-05
4.847505820953939e-05 -1.2661282369219184e-05 1.3662482243361105e-06
4.931196072661986e-05 -1.7023406135611757e-05 4.088438343498444e-05
5.106892513476369e-05 -1.873535392261603e-05 1.948430216059417e-06
4.7758112229365543e-05 -1.5040068232713796e-05 2.776382164692971e-06
5.157006232341379e-05 -1.747931604175683e-05 8.002063217983138e-07
4.7258643219938e-05 -1.4345978964663934e-05 1.2151899199322068e-06
4.57731796711306e-05 -1.3775580111199723e-05 1.0708991990977914e-06
1.8644950950450363e-05 -5.133104396128989e-06 -1.7019146239655074e-05
4.56849184043431e-05 -1.4140382042329406e-05 -3.6123323847187213e-06
4.061965857643834e-05 -1.2879631939035768e-05 -7.119188452942372e-06
4.257192810381716e-05 -1.3807024146335778e-05 -8.403087132782503e-06
8.696505900088616e-05 -1.393762472656287e-05 2.082321979833238e-06
5.100584991766673e-05 -1.8033845695478956e-05 -1.983689460220617e-06
5.1022886445181636e-05 -1.6395866548890527e-05 -2.9976829341832037e-06
5.468781567218894e-05 -2.1711898821224208e-05 3.7523664235550913e-06
8.07738069604948e-05 -9.175650453332988e-06 7.960113874767331e-06
8.31242971593234e-05 -1.0435126109421512e-05 -2.4163409226895076e-05
4.926835424284753e-05 -1.6463306586010595e-05 -6.256630660214604e-07
9.85652515752893e-05 -2.7690081692222595e-05 -6.957766953796457e-06
9.789625463416534e-05 -2.5953055081583392e-05 1.3289095845646967e-05
0.00010864613624745206 -2.2588382570442276e-05 -4.046301113123244e-05
9.842847968224797e-05 -2.7509889570806815e-05 -5.423098408627392e-06
0.00011561177847194367 -2.4061891616457883e-05 -4.534339313436027e-05
5.509345941577081e-05 -2.1099383946779622e-05 1.3704793944761291e-06
4.2561950338997615e-05 -1.4564279559738152e-05 -1.5738136051306615e-05
4.732825157081936e-05 -1.4421367900838693e-05 -1.3124218973458055e-06
4.8272312251508146e-05 -1.5138048076895915e-05 -9.301642500334639e-07
6.079423806316827e-05 -2.58187878682406e-05 -6.49097846377944e-06
4.52461517277747e-05 -1.6816719813331325e-05 2.1618971719122954e-05
3.455180592474538e-05 -1.2041633964507703e-05 1.556965842582703e-05
5.2539270194909144e-05 -2.1004309271660992e-05 -1.3087771868962304e-05
4.085499046964234e-05 -1.2983195777093766e-05 7.3713838839421864e-06
0.00010085034956939589 -1.2184481099131908e-05 4.707080181137407e-05
7.815760486845536e-05 -3.0142463713444646e-06 -3.2851504626538446e-05
8.876633792852182e-05 -1.4520178249916605e-05 1.504245715661103e-07
5.987023041932665e-05 -2.5346001031220107e-05 7.392383880104517e-06
4.644562068112745e-05 -1.6193624491371384e-05 1.27090734399081e-05
2.216989542432627e-05 -6.839800738205927e-06 2.020477842752166e-05
7.647027134830684e-05 -1.074245638770138e-05 1.2817119183100803e-05
5.27400524908406e-05 -2.003574117717033e-05 7.63408084922915e-06
4.6843044924210624e-05 -1.714293697153776e-05 -1.4667015719848885e-05
5.5084780033840034e-05 -2.2344061245934588e-05 -5.776018660778505e-06
7.288316921353638e-05 -2.5022567067425523e-05 4.93422564135484e-06
4.425082893539858e-05 -1.3743695307337494e-05 2.7868765252018507e-06
5.8456865032920725e-05 -2.4050015621558265e-05 6.672154298853521e-06
6.6020417644942e-05 -2.71352855991723e-05 1.0543611060804992e-05
5.983854702499074e-05 -2.5174092412243663e-05 1.5604019339376067e-05
7.499640359634741e-05 -1.3505267128006413e-05 2.0592389653401798e-06
7.046090795344619e-05 -2.2008681475578635e-05 2.5119991008021936e-05
7.421823555980293e-05 -1.8621272359962756e-05 -1.5680915504749344e-05
5.1393160274462505e-05 -1.918505530356641e-05 -5.204644851801489e-06
6.879462844940647e-05 -2.2912519075021735e-05 -2.687185299780245e-05
4.482255643302007e-05 2.795733309956709e-06 -6.033983691355234e-05
4.4405991577424756e-05 -1.3779965097767947e-05 -3.0869579330939627e-06
7.184855589729717e-05 -2.5849022718616155e-05 1.2542409841539984e-05
3.9533366270380046e-06 7.936620741230445e-07 -5.9031093721897176e-06
4.230125163392339e-05 -2.1323598699364632e-06 7.34961135927263e-06
4.822182425624454e-05 -1.4819449680005819e-05 1.6014511351661047e-07
8.817476279037404e-05 -1.213404029671786e-05 1.9192524300767568e-05
4.823010307797148e-05 -1.4808306270657537e-05 -7.255231273289861e-08
4.214482300663128e-05 -2.5475462059119554e-06 2.494227581220823e-06
6.132234547319604e-05 -2.614324721474734e-05 -3.1267861301487057e-06
4.2254581836116205e-05 -2.632663560424275e-06 -2.9028425974143654e-06
4.114638285124208e-05 -1.28879185887614e-05 6.826425900461439e-06
6.165782735452848e-05 -2.4140860026397638e-05 -2.6385347989206792e-05
4.814388126616132e-05 -1.4660817401022648e-05 2.745593506906085e-07
1.6950809838004347e-05 -3.712219777880553e-06 2.0665286749320682e-05
4.8356854749950935e-05 -1.2607957740487269e-05 5.18740153639548e-06
4.041522019310646e-05 -1.0334386413816512e-05 4.89022583412093e-05
9.85616432028599e-05 -2.6641276344933845e-05 1.3115715861839964e-05
5.1555190536412694e-05 -1.8586636349106602e-05 -5.256025195014151e-06
9.234473909742836e-05 -1.748989716443787e-05 1.1617319811767639e-05
3.1430161707519536e-05 -1.0238820078421065e-05 -1.5089919138888197e-05
4.811628047824871e-05 -1.4597568911333605e-05 -2.583109655850791e-07
4.2693109358207676e-05 -2.974362774839336e-06 -8.33159822032448e-06
4.855477395187312e-05 -1.543333856595063e-05 5.120018063983446e-07
5.8834011920870317e-05 -2.4117707652301462e-05 2.4655358929956375e-05
4.7231712341943884e-05 -1.4066233899462157e-05 2.6995262029329726e-06
4.795976112311652e-05 -1.4470616271661356e-05 2.7237712956382687e-07
4.796772772929209e-05 -1.4484099644952736e-05 -2.746470586675363e-07
4.7153904494242526e-05 -1.395195034855214e-05 -2.7365538928436967e-06
4.857793866352631e-05 -1.737329677983747e-05 -9.998109093434171e-06
2.209755811662511e-05 -3.99700485762146e-06 3.2006986819317753e-05
5.140651818487114e-05 -1.9593159148968987e-05 1.0851016626040957e-05
4.739245061478607e-05 -1.541566228332111e-05 -5.3901262105042864e-06
4.798089558184622e-05 -1.4744537198251887e-05 9.161968447456634e-07
4.799402492819405e-05 -1.4729275420466089e-05 -8.987369210644532e-07
6.942479566237373e-05 -2.5727728858915845e-05 -1.1444743683048887e-05
4.8398570308130677e-05 -1.3029407177766849e-05 -5.238731924499828e-06
4.8321840190795227e-05 -1.4971837173445352e-05 -3.842804169080352e-07
3.2927594985081045e-05 -5.73553375740356e-06 -4.397903669830873e-05
4.849912993736993e-05 -1.269937010166224e-05 -2.4584212329260615e-06
4.931067032743787e-05 -1.6509704953573456e-05 1.1635916162877511e-06
6.423083768006969e-05 -1.386337039891341e-05 4.7373434667853186e-05
-7.601589173097408e-08 1.9692416373164264e-06 -9.248230113419911e-08
4.808061743699838e-05 -1.4424287084237963e-05 -8.080827445980337e-08
5.040099088080374e-05 -6.530673969122333e-06 1.9025438263856465e-05
-1.7259975907514694e-06 1.8657997337404607e-06 -2.298187012868169e-06
5.038548625130341e-05 -6.796680975887825e-06 -1.878076273157467e-05
4.808387016167753e-05 -1.442527272291888e-05 8.044227110153485e-08
6.724145205831269e-05 -1.4475127647434895e-05 -3.839021122499849e-05
4.872943882336578e-05 -1.5834759250915473e-05 -2.0661683353143706e-06
4.175612945889013e-05 -1.4745462497118303e-05 -3.446982877141351e-05
6.753397729231365e-05 -1.4555045171789676e-05 4.226932489390947e-05
4.554843872484957e-05 -1.7326294825590302e-05 -2.3925750160572907e-05
4.781232488069067e-05 -1.382994550505207e-05 4.774373050207263e-06
4.557574366994992e-05 -7.87946919242649e-06 -2.8936997175760015e-06
6.698912451062759e-05 -2.8521946954771084e-05 4.550991792525428e-06
5.0471615065820864e-05 -1.69145137919671e-05 5.033541648304107e-06
3.347623032181322e-05 -1.0796322145848305e-05 1.300484592173579e-05
4.9709839283982164e-05 -1.7446953053320794e-05 5.766420005082455e-06
3.7740711215664156e-05 -1.3075794372775945e-05 2.4092624018623933e-05
4.785741875468181e-05 -1.0328229781001501e-05 1.0301872155157553e-05
4.771059519727067e-05 -1.0628510370787882e-05 -9.14161797799574e-06
4.567162480726315e-05 -1.3774347271072439e-05 -9.508693432320625e-07
4.559340986626047e-05 -8.304335587763547e-06 5.829017322452812e-06
9.278918616457011e-05 -1.8953458545313875e-05 -7.859917248824321e-06
4.534042800241276e-05 -1.390011812491181e-05 3.158459262767108e-06
8.629504753403549e-05 -1.4224318118012973e-05 -1.343851022349269e-05
4.966054936495057e-05 -1.768235891641802e-05 -8.794207907230695e-06
0.00010505927074425695 -1.1724551880554334e-05 5.250347492395037e-05
7.777254992129872e-05 -8.250816923333429e-06 -6.892836042860611e-06
8.11168551597055e-05 -1.0158354955509953e-05 -1.7957267242116142e-06
5.2193393704968807e-05 -2.1210662369037543e-05 2.6905387367876752e-05
5.518308859318039e-05 -2.2103847330468744e-05 -5.615691181304623e-06
4.945322819764234e-05 -1.701669532253545e-05 -4.0182243801583704e-06
5.442912250503542e-05 -2.2088588745200723e-05 1.7846332424054166e-05
4.95849935541312e-05 -1.5791966106807203e-05 -4.678437222843978e-06
6.56082903156344e-05 -2.4426922686353784e-05 2.6254200522047514e-05
7.488278106476884e-05 -5.6197070822447364e-06 -3.1321463616564356e-05
9.282754816512847e-05 -1.9410803034665564e-05 -5.358764601579647e-07
4.5375972278249446e-05 -1.7340674273284203e-05 -2.73903120919849e-05
4.4120348559241546e-05 -5.580084938170811e-06 9.684964361746655e-06
7.290071689277936e-05 -1.9465061970799526e-05 -1.4092978404311796e-05
-1.984110655677013e-06 1.9297215380424964e-06 2.5384048078596612e-06
5.4702258755176e-05 -2.0912495598035296e-05 3.3237177478133515e-05
4.713818555877576e-05 -1.4969269099715323e-05 -4.471809501167703e-05
6.238009645229242e-05 -2.464060707830743e-05 -2.517325982078002e-05
7.372884738031068e-05 -2.0843986150765167e-05 1.4765752110945115e-05
2.36222418929863e-05 1.0374706692767699e-05 6.21348134558317e-05
4.805250591123383e-05 -1.4476796059960267e-05 1.400157263696122e-07
4.417949184437782e-05 -3.3436107947263363e-06 1.4981922906276642e-05
2.3354344285206928e-05 1.0473264438603924e-05 6.159392136557316e-05
4.8050754260135316e-05 -1.4470956549457714e-05 -1.2783161471761918e-07
4.4133713018819564e-05 -3.9505030034544625e-06 -1.4209933672548791e-05
4.8706941377083976e-05 -1.6008536657421965e-05 2.619628474567568e-06
1.8490243634661673e-06 1.3596175164284073e-06 -1.1056794782342699e-05
4.60879160803138e-05 -8.606210115071899e-06 -7.088494445399287e-06
4.564356735853415e-05 -1.677173218123694e-05 -3.533506957892111e-05
1.927249077943866e-05 -2.8752648740134573e-06 -2.9281474899407664e-05
2.2118022677127737e-05 1.1779702153059732e-05 -6.150538747264117e-05
POINT_DATA 205
VECTORS Displacement float
0.0 0.0 0
4.066402902201185e-06 -8.35615254546241e-09 0
6.405910311813809e-06 1.7119124619072274e-07 0
1.2145753044334114e-05 1.1019945153353483e-07 0
1.4582544153390887e-05 -8.161104709545638e-08 0
1.8650173049212437e-05 6.622505902684939e-07 0
1.8675267618633908e-05 -7.825594649914614e-07 0
1.459506971082002e-05 2.7505679243402806e-09 0
1.2205790974146157e-05 -1.9324065284062145e-07 0
6.406309257133641e-06 -1.2137558737082433e-07 0
4.02637497625059e-06 1.7679952866602232e-08 0
0.0 0.0 0
8.621696470827624e-07 4.722236024933069e-07 0
1.5751585037388155e-06 6.652225411836891e-07 0
2.26652228858941e-06 7.901629197915934e-07 0
2.9299218059320855e-06 8.915756080901802e-07 0
3.508531536382211e-06 9.725611244307637e-07 0
3.919288895617147e-06 1.007588469840895e-06 0
4.088382687510345e-06 7.33848878225942e-07 0
4.733497592489144e-06 -5.085895418396051e-08 0
8.058996484699394e-06 4.5414711094637586e-07 0
9.309598708442615e-06 5.540198916298442e-07 0
1.0560364410485224e-05 4.867071710564178e-07 0
1.3892788688907765e-05 -1.6589681856401314e-07 0
1.454936119336937e-05 7.091120280324735e-07 0
1.4676988983783568e-05 9.468862861371316e-07 0
1.5105005840795687e-05 9.337351763382246e-07 0
1.5713616802613555e-05 8.398791991748607e-07 0
1.640947427827674e-05 7.684837129732142e-07 0
1.714686698214074e-05 7.171754070706283e-07 0
1.789804768160164e-05 6.850983651521463e-07 0
1.866809409604861e-05 4.826194427689841e-07 0
1.868218866136544e-05 3.0366353665785806e-07 0
1.8690967035209554e-05 1.2271996502815128e-07 0
1.869516553017594e-05 -6.038115397522311e-08 0
1.8697173545149545e-05 -2.4312653610683226e-07 0
1.8694966606836948e-05 -4.23828972419772e-07 0
1.86869752430545e-05 -6.029250359249652e-07 0
1.7923111180048326e-05 -7.977215116089108e-07 0
1.7171820007173775e-05 -8.221372553890398e-07 0
1.643356328285626e-05 -8.659300834740878e-07 0
1.5735487155276487e-05 -9.321005394789003e-07 0
1.5129272672356223e-05 -1.0059879274390537e-06 0
1.4707453342129304e-05 -1.0178393508119364e-06 0
1.4562408586654464e-05 -7.859178532719408e-07 0
1.390910614879097e-05 7.700775072649231e-08 0
1.0583150373228955e-05 -4.777533967009689e-07 0
9.310321564630403e-06 -5.69922102673585e-07 0
8.062346920493753e-06 -4.972981975061276e-07 0
4.737630179160876e-06 6.37326165517273e-08 0
4.067861054582831e-06 -7.404935654762916e-07 0
3.936565948487989e-06 -9.93826016505245e-07 0
3.5194849604304295e-06 -9.749962539323993e-07 0
2.9281275187115742e-06 -8.885102791665385e-07 0
2.2666427134349966e-06 -7.912391719795584e-07 0
1.5757260128803884e-06 -6.673637449360892e-07 0
8.626582756580402e-07 -4.726392469931686e-07 0
0.0 0.0 0
0.0 0.0 0
0.0 0.0 0
0.0 0.0 0
0.0 0.0 0
0.0 0.0 0
0.0 0.0 0
1.8151372569559784e-05 3.995720960377146e-08 0
4.98206862313478e-07 -5.5036608488168e-09 0
3.4185604939712507e-06 7.663479491456893e-07 0
1.523918854912517e-05 -8.368628802483165e-07 0
1.6003825384818295e-05 5.89714497916602e-07 0
2.795716639870306e-06 -6.567849025592676e-07 0
1.4818141587098416e-05 7.970061309723337e-07 0
4.084807042246913e-06 -8.856442239793857e-07 0
1.659900428028162e-05 -6.859140936771177e-07 0
1.997802959910081e-06 5.775241492113432e-07 0
7.4670261129126845e-06 -1.232723156692127e-07 0
6.277108349723092e-06 -3.1811200835326823e-07 0
1.0750403113814282e-05 -1.1986836769224843e-07 0
1.1960366147926454e-05 -2.3076118524874067e-07 0
1.809380905968695e-05 -2.6248421852893677e-07 0
4.712737751961573e-07 9.768914587734931e-08 0
8.858717822068276e-06 2.728204978990684e-07 0
1.7324843528762372e-05 5.254029156585824e-07 0
4.553475202496548e-06 8.022000906048107e-07 0
1.3292044669784914e-06 -4.736435468216427e-07 0
1.0958440185747874e-05 6.931263085543509e-08 0
1.2389904063367403e-05 2.884823209252818e-07 0
7.2450574901363215e-06 -6.252165787949695e-08 0
6.148657352661461e-06 -8.069997895546968e-08 0
5.640639681928468e-06 -3.915684540644249e-07 0
5.378054626116779e-06 -3.2387933722438284e-09 0
1.3034643895558077e-05 4.850217346413874e-07 0
1.3007020234806446e-05 2.474983531049474e-07 0
1.4078312477214329e-05 -8.361850180781302e-07 0
6.391186374978346e-06 1.5820399222188706e-07 0
5.019879702688236e-06 4.2414899602384594e-07 0
4.165799737271312e-06 1.5251375648350544e-07 0
3.386347153923574e-06 -1.1109181916032629e-08 0
3.1103259134986415e-06 2.038859206429421e-07 0
2.5228378839385113e-06 -1.0093677191304862e-07 0
2.5127851328609007e-06 1.8711292390815085e-07 0
1.7136767984429143e-06 -3.4852318116549803e-08 0
1.7481838933646722e-06 1.5638289965762615e-07 0
5.273658826219545e-06 -5.582765038157188e-07 0
8.425540720055834e-06 -8.164414885413664e-08 0
3.6461248846805026e-06 -3.233066196951935e-07 0
1.1263797588309572e-05 -4.396367570811589e-08 0
1.0185947683283046e-05 -5.961362367896765e-08 0
2.1714260801772813e-06 -2.5052204364362793e-07 0
1.701164000434005e-06 -2.0767082449516816e-07 0
2.594663663326922e-06 4.3278430612205733e-07 0
1.2275929792809301e-05 -1.5106503241240657e-07 0
1.2933031332325004e-05 -3.7069853583999086e-07 0
1.3262206881353814e-05 -1.0928105472175934e-07 0
1.3535796566131874e-05 -4.0809965340000884e-07 0
1.416405150821328e-05 -7.38199671074667e-08 0
1.4350145669623678e-05 -4.02386218191236e-07 0
1.5048684468715371e-05 -4.419564008404745e-08 0
1.517733151216557e-05 -3.538022127368454e-07 0
1.5991979807635024e-05 4.111094195930825e-09 0
1.4893127800433117e-05 2.9747462894464056e-07 0
1.599049538715112e-05 -3.0651783009547796e-07 0
1.6836600638009625e-05 -6.886656689625318e-08 0
1.6393750334999517e-05 1.6693605510564684e-07 0
1.6895581061836684e-05 1.4027857618166456e-07 0
1.6756788118678426e-05 -2.836746184565754e-07 0
1.6829163200297204e-05 3.421410021679213e-07 0
4.1178896419465915e-06 5.889059014226393e-07 0
1.350983644243474e-05 5.711796099426352e-07 0
1.4503833157288664e-05 -6.779876950163804e-07 0
7.503864523322124e-06 4.572705654895016e-08 0
1.5969330473917128e-05 -5.461671417895531e-07 0
1.8057857089602444e-06 -3.832149737876383e-07 0
1.0707811956951922e-06 -1.7840637448080655e-08 0
3.533233412918493e-06 -8.146635700819857e-07 0
3.143540777084933e-06 -5.434144146079903e-07 0
1.540818499071514e-05 6.155889334058655e-07 0
1.7515428624365165e-05 -8.318730337815011e-08 0
1.4064732715164563e-05 2.901470933529554e-07 0
1.746666766807286e-05 3.3596418003886676e-07 0
1.7300819543083513e-05 -6.455844431319486e-07 0
1.2859267778128777e-06 4.5866598910577067e-07 0
4.016070311182619e-06 7.907753420865047e-07 0
4.472654565421729e-06 -8.006995524055775e-07 0
4.39181744195219e-06 -6.663324524203171e-07 0
1.664794965131939e-05 5.535392549925899e-07 0
8.267527004307446e-06 -2.396534085178755e-07 0
1.0022879933652714e-05 2.2747625928979195e-07 0
9.61306867452821e-06 5.853417333614706e-08 0
9.412850808131684e-06 -2.9734667071013235e-07 0
5.4179792240147406e-06 5.154964907973169e-07 0
5.4326871215659864e-06 5.699671073050764e-07 0
1.3398954699454296e-05 -6.170335730903337e-07 0
1.808287975281771e-05 3.2837821029837064e-07 0
5.523621584883616e-07 -1.50783067659214e-07 0
1.8053454457852496e-05 -4.423570359986998e-07 0
4.856529572472135e-07 5.6111836795802284e-08 0
5.178326969597807e-07 1.662351169690455e-07 0
1.8123676894377595e-05 -8.444851802907283e-08 0
5.193438031730839e-07 -7.19425037011291e-08 0
1.4827968925427625e-05 6.110491668673069e-07 0
1.813479226851199e-05 2.023897842078308e-07 0
2.733751515242293e-06 6.75325184673093e-07 0
3.490997967032827e-06 4.5513722249553356e-07 0
1.5601631653822507e-05 3.232632045757056e-07 0
1.3991392184838247e-05 7.397181896931812e-07 0
1.0620041891518089e-06 1.0812363660621076e-07 0
6.511773441636006e-06 2.449990756945676e-07 0
1.7448189854417807e-05 -2.731373752163798e-07 0
1.1722755967505933e-06 -2.9056883889252164e-07 0
1.3775137344884553e-05 -6.616843744880943e-07 0
1.766461665084654e-05 1.2582565689998447e-07 0
1.738342873199413e-05 -4.621664522643347e-07 0
4.718175893731869e-06 -2.669232398800796e-07 0
1.1029104248170626e-06 -1.4575811862329047e-07 0
1.8266090796187917e-06 3.643124495913539e-07 0
9.758349473201853e-07 2.3465822244321472e-07 0
1.4634738736401789e-05 -8.9565665593585e-07 0
1.66838347037846e-05 -4.933324104039809e-07 0
5.016749411265732e-06 -6.749593595196173e-07 0
3.6631158246070824e-06 -6.004993411389674e-07 0
9.446870457815117e-06 -9.60082537403681e-08 0
1.048347062385398e-05 1.285293682865253e-08 0
1.6218011276336083e-05 3.4702085876392047e-07 0
1.589068437277616e-05 -7.518694429087774e-07 0
2.0272636543043984e-06 -5.844654085379187e-07 0
7.6357835196791e-06 1.2373599117662734e-07 0
1.5225336338595978e-05 -6.176373306626628e-07 0
1.1713343255597041e-05 6.195966677426783e-08 0
2.9479523458205363e-06 -3.6379485442703524e-07 0
4.481256422887449e-06 7.318115578948043e-07 0
4.706693847198959e-06 6.410459255213259e-07 0
1.7993219241334382e-05 -6.205654390839496e-07 0
6.117270241043073e-07 2.6177210660945885e-07 0
1.3954882785420831e-05 -5.096145849794921e-07 0
1.799542392962682e-05 5.035826384222739e-07 0
6.393131164797937e-07 -2.682224616036161e-07 0
1.2274400857660492e-05 5.2110904714260366e-08 0
4.584452997016337e-06 -5.417398102297083e-07 0
1.4176790540115833e-05 6.083517235466278e-07 0
8.5771662520057e-06 4.7066575959845177e-08 0
1.3946115091406002e-05 4.0996026252068613e-07 0
1.3407571000209442e-05 5.312669294411442e-07 0
1.2968284840541362e-05 -5.116281761981463e-07 0
2.3953346241172793e-06 -4.042715508008498e-07 0
1.4463645411876404e-05 8.24894121933977e-07 0