# vtk DataFile Version 2.0
Really cool data
ASCII
DATASET POLYDATA
POINTS 243 float
0.0 0.0 0.0
0.125 0.0 0.0
0.125 0.03240740740740741 0.0
0.175 0.03240740740740741 0.0
0.175 0.0 0.0
0.3 0.0 0.0
0.3 0.1 0.0
0.175 0.1 0.0
0.175 0.06759259259259259 0.0
0.125 0.06759259259259259 0.0
0.125 0.1 0.0
0.0 0.1 0.0
0.01562500001914041 0.0 0.0
0.03125000004302709 0.0 0.0
0.04687500009029187 0.0 0.0
0.06250000012942511 0.0 0.0
0.078125000069625 0.0 0.0
0.09374999998136457 0.0 0.0
0.1093749999689982 0.0 0.0
0.125 0.008101851866324969 0.0
0.125 0.01620370374068339 0.0
0.125 0.02430555555744356 0.0
0.1374999999728949 0.03240740740740741 0.0
0.1500000000514996 0.03240740740740741 0.0
0.1624999999674739 0.03240740740740741 0.0
0.175 0.02430555553434286 0.0
0.175 0.01620370365653494 0.0
0.175 0.008101851832937138 0.0
0.1906249999454511 0.0 0.0
0.2062499999464675 0.0 0.0
0.2218749999813653 0.0 0.0
0.2375000000284603 0.0 0.0
0.253125000025411 0.0 0.0
0.2687499999464675 0.0 0.0
0.2843749999108921 0.0 0.0
0.2999999999999999 0.01250000000785633 0.0
0.3 0.02500000002464271 0.0
0.3 0.03750000005532045 0.0
0.2999999999999999 0.05000000007786666 0.0
0.3 0.06250000001503192 0.0
0.2999999999999999 0.0749999999440657 0.0
0.3 0.08749999994628305 0.0
0.2843749999369807 0.1 0.0
0.2687499999742503 0.1 0.0
0.253124999894968 0.1 0.0
0.2374999998970008 0.1 0.0
0.2218749999180072 0.09999999999999999 0.0
0.2062499998726061 0.09999999999999999 0.0
0.1906249999261387 0.1 0.0
0.175 0.09189814809021109 0.0
0.175 0.08379629621565875 0.0
0.175 0.07569444436821149 0.0
0.1624999999105533 0.06759259259259259 0.0
0.1499999998834483 0.0675925925925926 0.0
0.1374999998590537 0.06759259259259259 0.0
0.125 0.0756944444224216 0.0
0.125 0.08379629629019768 0.0
0.125 0.09189814807936908 0.0
0.1093749999923767 0.1 0.0
0.09374999993596433 0.1 0.0
0.07812499987955196 0.1 0.0
0.06249999985295514 0.1 0.0
0.04687499989276568 0.1 0.0
0.03124999993257619 0.09999999999999999 0.0
0.0156249999764525 0.09999999999999999 0.0
0.0 0.08749999998398685 0.0
0.0 0.07499999993815812 0.0
0.0 0.06249999990588191 0.0
0.0 0.04999999987631621 0.0
0.0 0.03749999991857893 0.0
0.0 0.0249999999459339 0.0
0.0 0.01249999997735459 0.0
0.2889993902713851 0.04523219397509119 0.0
0.01100060970159168 0.05476780609882609 0.0
0.06903754458154124 0.01412399787856423 0.0
0.2309624381745933 0.08587645254003434 0.0
0.08226172365185663 0.08692118618375609 0.0
0.2177382062828257 0.01307997330139004 0.0
0.2454692314077876 0.01276096686257335 0.0
0.05453076398078403 0.08723906249980715 0.0
0.1830247163328497 0.07514445238155656 0.0
0.1818059926301616 0.06543600913366877 0.0
0.1169718047118211 0.02487236020150795 0.0
0.1183238179559014 0.03466197087543474 0.0
0.1905238169194949 0.06363743789243548 0.0
0.1095461475770617 0.03647235288737061 0.0
0.263528379804073 0.08365201674618421 0.0
0.03647162013708882 0.01634798546042585 0.0
0.1167570515431448 0.07381069190500929 0.0
0.1832456670064233 0.02622143300838408 0.0
0.2006299122845336 0.06262398062044354 0.0
0.09938671845810529 0.03742404643063065 0.0
0.1712869058671921 0.05931320206176828 0.0
0.1299064448148082 0.04050010508966362 0.0
0.2001215253565665 0.05006866375896146 0.0
0.2116557117085697 0.06177594441108697 0.0
0.09989969276140187 0.05000614468895334 0.0
0.08834790190468828 0.03823859055035171 0.0
0.2888805859999726 0.06896762671362394 0.0
0.0111194139906791 0.03103237328626735 0.0
0.2110920519284883 0.04936771327700533 0.0
0.2218114010365931 0.04809949588938026 0.0
0.08891251846504064 0.05065125179503945 0.0
0.07818945253733954 0.05190502459554801 0.0
0.1179726713693892 0.06491062626238764 0.0
0.1819062542918115 0.03535548820172 0.0
0.1076359640948943 0.07321727804452113 0.0
0.1923567993519495 0.02682544789297079 0.0
0.2780503271413367 0.01640911849302744 0.0
0.02194967279797513 0.08359088169318231 0.0
0.1709888752340988 0.04024926863011313 0.0
0.1265632368686133 0.06111276478780562 0.0
0.07727879314663069 0.06328269635376865 0.0
0.06779893842118953 0.05497614322707953 0.0
0.2227216662434526 0.03672053891312566 0.0
0.2322012014004641 0.04502487889321623 0.0
0.2023935579011516 0.07493117698608608 0.0
0.09761256335578372 0.02508809264945402 0.0
0.141846811380043 0.05585946130548376 0.0
0.0654793986442852 0.04339106930669562 0.0
0.05398456444159885 0.04832128015831758 0.0
0.2345206777534808 0.05660965163517889 0.0
0.2460154538430497 0.05167890087376549 0.0
0.05729434586140462 0.06002848109946285 0.0
0.04274586668431193 0.05345410462676439 0.0
0.03891927803650741 0.04203774422832653 0.0
0.2427056802136248 0.03997175795171647 0.0
0.2572541372735196 0.0465459393107344 0.0
0.2610807237077928 0.05796227807826716 0.0
0.04632887606179318 0.06534802119981266 0.0
0.2536711300272817 0.03465203214857318 0.0
0.1061058015369918 0.08337517833693697 0.0
0.1938932580540625 0.01663382653671161 0.0
0.09709982031118386 0.07377906597319876 0.0
0.2028993763823502 0.0262402089595958 0.0
0.271443412088492 0.05339731421502683 0.0
0.02855658837412932 0.04660269205477122 0.0
0.1590238312604513 0.04194157983004753 0.0
0.2655879166787611 0.06835868874227745 0.0
0.0344120836310404 0.03164131765200336 0.0
0.1212660898828248 0.05726360371450871 0.0
0.1785208136612711 0.04383976610432909 0.0
0.1135535662851019 0.0913867742483546 0.0
0.186446289784461 0.008614191587081745 0.0
0.1821358187931903 0.09139904978650326 0.0
0.1178635490895173 0.008601615271895274 0.0
0.09481676023755124 0.08549260181848577 0.0
0.2051825184127705 0.01451458680724562 0.0
0.2315330212421738 0.01277641884929987 0.0
0.06846696271708212 0.08722400853867626 0.0
0.06192491196395968 0.073381427879561 0.0
0.238075136317409 0.02661868661089918 0.0
0.1735907615179466 0.05038322024434704 0.0
0.1275042842221193 0.05188385324918814 0.0
0.2596681809639018 0.01243242556723877 0.0
0.04033181893151833 0.087567574431511 0.0
0.1667294043358142 0.04646777674939614 0.0
0.1635831104153908 0.05273644169518944 0.0
0.09884307252132085 0.06218636418526285 0.0
0.2011663832345915 0.03787185821626259 0.0
0.2680835519577811 0.0429129214251634 0.0
0.0319164490718827 0.05708709058277742 0.0
0.1428982048434773 0.042378813745673 0.0
0.2745231045756094 0.0875939695553556 0.0
0.2441092944161674 0.08185717480400144 0.0
0.0558907005764898 0.01814293407218653 0.0
0.02547689542054935 0.01240603077089991 0.0
0.1354779903141662 0.04773756376642044 0.0
0.238353294330665 0.06875087820150678 0.0
0.2262311221549545 0.07238205162701086 0.0
0.2175482409922317 0.08700729450436885 0.0
0.06164671385993279 0.03124946412570732 0.0
0.07376911116257445 0.02761990989078618 0.0
0.08245204247708862 0.01299502808363764 0.0
0.1786418150778142 0.05663307251574669 0.0
0.1221339209332949 0.04400192850162524 0.0
0.2891898029199449 0.01962999223036234 0.0
0.2773931882778309 0.03011948123611136 0.0
0.01081019707041606 0.08037000774352569 0.0
0.0226068117545167 0.06988051999873322 0.0
0.2555810998521297 0.0748652843323351 0.0
0.0444189001893959 0.02513475860009249 0.0
0.2886259946564474 0.08017668267267443 0.0
0.01222533923572666 0.04282331430959938 0.0
0.01137400534051733 0.01982331732192075 0.0
0.2877746607252808 0.05717668564128915 0.0
0.2044355580340118 0.08721968948391294 0.0
0.09556464552910324 0.01278536198438669 0.0
0.2263300953503612 0.02519121205184932 0.0
0.07366999453838377 0.07481034974756909 0.0
0.0877702256482694 0.06268349332901865 0.0
0.2122330840894119 0.03733513274640047 0.0
0.1830904343647533 0.08462454483666661 0.0
0.1169079674799635 0.015379696858849 0.0
0.2890148065308646 0.03311781441961434 0.0
0.01098519345567242 0.06688218577496241 0.0
0.1908722168312499 0.03734442465774925 0.0
0.1091136954118067 0.06284839471688573 0.0
0.1156082961976835 0.08291157585448106 0.0
0.1843913318456679 0.01709691192554073 0.0
0.2756406797939562 0.06339612891402785 0.0
0.279863831964578 0.07499703177634573 0.0
0.02435932041247191 0.03660387426076459 0.0
0.0201361680728717 0.02500296909137087 0.0
0.1695182781672163 0.05418147802805241 0.0
0.1123743178694827 0.05011355401680339 0.0
0.1877718077397355 0.0503157096508358 0.0
0.2787527447455326 0.05063805359298847 0.0
0.02124725540922518 0.0493619489060534 0.0
0.2501836489074321 0.06340055412267552 0.0
0.04981635937549909 0.03659958166270028 0.0
0.2147041028195256 0.02545068611993341 0.0
0.08529680854718664 0.07455962151631072 0.0
0.1078864188060666 0.02503149549490479 0.0
0.1921308841048122 0.0750013832003369 0.0
0.04929800131123328 0.0744753693529684 0.0
0.03478031767739084 0.0692490632096208 0.0
0.2507020101030226 0.0255246841763293 0.0
0.2652196841722028 0.03075095197027293 0.0
0.07662393493463383 0.04023475035872721 0.0
0.2233769779125321 0.05976990338282127 0.0
0.2783847791867406 0.04253583690612835 0.0
0.02161522109367215 0.05746416656289366 0.0
0.1526677435493394 0.05055048796430777 0.0
0.2306812123758751 0.03667385958343882 0.0
0.06931897492066758 0.06332748870674271 0.0
0.2692861013649313 0.07559164226301644 0.0
0.03071389871868288 0.02440836338727281 0.0
0.136673067447882 0.03813738846057455 0.0
0.2869972696216744 0.08840747272240529 0.0
0.013002730373675 0.0115925273482185 0.0
0.2916809321015152 0.01171792064905251 0.0
0.008319067864377186 0.08828207935439142 0.0
0.194716410777935 0.009190998914844432 0.0
0.1052832866147462 0.09081217639112446 0.0
0.1627440843073839 0.05978814517838676 0.0
0.1641960727857464 0.03786868910614345 0.0
0.1331156965979521 0.05932857823788878 0.0
0.2143337142708757 0.07411297185873301 0.0
0.08566869441223854 0.02589641530995898 0.0
0.1554055575204885 0.059121040103137 0.0
0.1072335502301523 0.01374248236110943 0.0
0.1927680506927441 0.0862661090219358 0.0
POLYGONS 206 1030
4 205 197 158 96
4 206 196 159 94
4 154 218 130 217
4 155 216 129 215
4 171 172 219 119
4 168 169 220 121
4 198 142 234 131
4 199 143 233 132
4 186 170 46 47
4 187 173 16 17
4 146 59 60 76
4 147 29 30 77
4 78 151 188 148
4 79 150 189 149
4 167 153 175 93
4 148 31 32 78
4 149 61 62 79
4 154 33 34 108
4 155 63 64 109
4 76 60 61 149
4 77 30 31 148
4 78 32 33 154
4 79 62 63 155
4 163 43 44 86
4 166 13 14 87
4 116 186 242 214
4 117 187 241 213
4 169 168 164 75
4 172 171 165 74
4 59 234 142 58
4 29 233 143 28
4 218 160 127 130
4 216 161 124 129
4 74 165 14 15
4 75 164 44 45
4 114 191 211 188
4 112 190 212 189
4 160 135 128 127
4 161 136 125 124
4 173 74 15 16
4 170 75 45 46
4 122 126 130 127
4 120 123 129 124
4 23 24 236 137
4 44 164 180 86
4 14 165 181 87
4 123 120 119 113
4 126 122 121 115
4 75 170 238 169
4 74 173 239 172
4 8 92 174 81
4 2 93 175 83
4 53 54 237 118
4 22 228 93 2
4 3 105 141 110
4 9 104 140 111
4 133 158 197 106
4 134 159 196 107
4 141 152 156 110
4 140 153 237 111
4 70 99 183 69
4 40 98 185 39
4 39 185 72 38
4 69 183 73 68
4 108 176 194 177
4 109 178 195 179
4 174 92 204 152
4 170 186 116 238
4 173 187 117 239
4 154 108 177 218
4 155 109 179 216
4 135 160 221 207
4 136 161 222 208
4 23 162 228 22
4 103 102 190 112
4 101 100 191 114
4 38 72 194 37
4 68 73 195 67
4 139 227 87 181
4 138 226 86 180
4 151 217 130 126
4 150 215 129 123
4 52 235 92 8
4 167 162 223 118
4 128 135 200 138
4 125 136 202 139
4 168 121 122 209
4 171 119 120 210
4 25 89 105 3
4 55 88 104 9
4 151 126 115 224
4 150 123 113 225
4 96 158 190 102
4 94 159 191 100
4 37 194 176 36
4 67 195 178 66
4 13 166 230 12
4 43 163 229 42
4 21 2 83 82
4 51 8 81 80
4 205 96 91 85
4 206 94 90 84
4 47 48 242 186
4 17 18 241 187
4 24 3 110 236
4 34 231 176 108
4 64 232 178 109
4 54 9 111 237
4 238 95 220 169
4 239 97 219 172
4 102 97 91 96
4 100 95 90 94
4 218 177 221 160
4 216 179 222 161
4 113 119 219 103
4 115 121 220 101
4 118 237 153 167
4 150 225 112 189
4 151 224 114 188
4 59 146 131 234
4 29 147 132 233
4 77 211 134 147
4 76 212 133 146
4 165 171 210 181
4 164 168 209 180
4 152 204 157 156
4 42 229 41 6
4 12 230 71 0
4 64 11 65 232
4 34 5 35 231
4 147 134 107 132
4 146 133 106 131
4 235 52 53 240
4 23 137 223 162
4 40 182 201 98
4 70 184 203 99
4 155 215 150 79
4 154 217 151 78
4 83 85 213 82
4 81 84 214 80
4 229 163 201 182
4 230 166 203 184
4 149 189 212 76
4 148 188 211 77
4 138 180 209 128
4 139 181 210 125
4 89 107 196 105
4 88 106 197 104
4 56 198 88 55
4 26 199 89 25
4 127 128 209 122
4 124 125 210 120
4 50 51 80 192
4 20 21 82 193
4 158 133 212 190
4 159 134 211 191
4 135 207 185 200
4 136 208 183 202
4 162 167 93 228
4 185 98 201 200
4 183 99 203 202
4 105 196 206 141
4 104 197 205 140
4 101 114 224 115
4 103 112 225 113
4 102 103 219 97
4 100 101 220 95
4 57 142 198 56
4 27 143 199 26
4 153 140 205 175
4 152 141 206 174
4 83 175 205 85
4 81 174 206 84
4 91 117 213 85
4 90 116 214 84
4 72 221 177 194
4 73 222 179 195
4 107 89 199 132
4 106 88 198 131
4 40 41 229 182
4 70 71 230 184
4 185 207 221 72
4 183 208 222 73
4 36 176 231 35
4 66 178 232 65
4 49 50 192 144
4 19 20 193 145
4 137 236 110 156
4 156 157 223 137
4 82 213 241 193
4 80 214 242 192
4 18 145 193 241
4 48 144 192 242
4 157 204 92 235
4 86 226 201 163
4 87 227 203 166
4 200 201 226 138
4 202 203 227 139
4 91 97 239 117
4 90 95 238 116
4 53 118 223 240
4 235 240 223 157
4 18 1 19 145
4 27 4 28 143
4 48 7 49 144
4 57 10 58 142
CELL_DATA 206
SCALARS Von_mises double 1
LOOKUP_TABLE default
18769202.70845066 18667265.172583647 10286489.545158189 10318991.507708583 12591907.515753817 12489758.502756786 4109072.0429484285 4142335.6251812195 5891789.204256357 5786714.061167508 6011587.166939068 6117634.30133916 10121895.759733446 10055703.361819087 21844538.676341597 9017506.53395657 8720168.639680756 9888448.135555342 9620124.956723256 7678820.621438394 7868708.135447767 9625161.943877613 9241436.91352916 9746940.087694678 9415490.516943788 9549928.543171987 9514818.301945219 10697265.522662504 10693923.98459039 1919358.304462694 1955606.2758993646 10638577.604329025 10565287.382290633 8773741.866718452 9045545.581805263 13008337.23917034 13045363.581128702 10685787.657591827 10474246.912668226 7645988.324266987 7837046.161538143 11352575.004276382 11440671.91653228 28568250.538416356 9783078.8739413 9694901.520688392 12400732.073596701 12250366.26814907 10508034.74350109 10451039.864796111 21682996.79828516 22247086.577626955 28220428.876865063 33620342.9602952 21869475.248419143 21632636.193174947 15963270.179180482 15970141.86609972 21442664.09112544 21788696.343647074 8659826.80691459 10075317.007896522 10099076.325437523 8547825.221296392 10055409.592283102 9537360.975190844 21184617.255821913 10282831.770084139 10226497.314966701 10085530.206696728 9988231.232843088 10382739.787659315 9850484.937787028 28414634.763449524 14904760.50557375 14796355.819693213 10089308.347015385 8558406.103337485 10124723.706737746 10166730.934312297 10933363.702091632 11015047.668403536 32656952.68719584 27234540.91274357 10474343.621189537 10194557.150290959 11765070.518810652 11888384.312172273 19309234.187194545 19277140.16328054 12079404.464294804 12204414.56216514 16687253.579751601 16607069.294171276 10047900.365113575 8695499.70733815 9786134.806209376 9951015.279764032 18669067.08646365 18704014.26603389 18653619.077520587 18662091.132567827 3227631.417238025 3182453.561713869 33848961.88222913 9975715.506138649 10195662.496153064 32958371.879751135 13432910.25879869 13489056.447294893 16770844.665003182 16699942.449261624 10324820.311734276 9934985.682717506 13649990.35157389 13501137.337438386 24404669.88698016 12111683.59591405 12046597.011743572 4857795.162092874 4909336.345796136 10466519.535834339 10402897.84663663 10783699.209793909 10737963.849269416 22355464.17550272 10000599.17400686 10612690.2628758 10671305.518558433 10002739.18552299 10775578.734683363 10714527.647674114 28245776.039923143 28459496.08967859 10048040.861786218 9032422.146241752 10058881.768442905 10107909.404347513 17130703.161350932 17035161.05659182 9997379.321604446 9925524.258593755 10145376.169392496 10219091.263197301 10658942.010610059 10661626.8449469 17771196.163359202 17729531.517804112 4156193.9956783187 4193534.3504545954 11148183.40152111 11184990.87611742 2959908.730538671 2954984.279640452 14368749.892527748 14349638.182124753 10287016.754137594 9537758.201508805 26468008.28801011 10155828.681937069 9328347.697293578 20294415.07834623 20378837.49946639 13348790.119970886 13484778.40246698 15042467.778353315 14926857.279617818 736713.1285663828 745325.3037538322 19614668.49647067 19545074.682286944 20344380.116194416 20291280.38899591 15684484.25180369 15647863.246418536 10163256.248095557 9260885.89858042 10402310.797713272 10334028.943239233 9994388.041880256 9179317.36584913 10205606.07079622 9210193.837048959 9994620.503192715 8996296.115958896 794076.504005276 798887.2817115509 26175530.790219665 26200291.254665613 8536293.725411301 8564323.27309104 1442085.29078904 1456203.2161361654 24615394.7902476 10011353.207908722 9926810.943967277 10211353.808191912 9992061.11817758 14452960.182688875 14431801.514457563 28372570.885405295 27434085.11735295 522337.29254574084 667372.8324978244 517296.0823412849 668167.4078528935
SCALARS Stress double 1
LOOKUP_TABLE default
17959116.969123922 -1093967.606167555 -1723333.076463275
17902489.257653516 -1020508.5834254934 -1698684.361713653
10034625.111613393 -423627.4792106031 -478805.0577664177
10145857.709297717 -270980.4244220407 -490033.2846636897
11481939.155350154 -1699838.6135124767 1199209.9165535846
11371418.537657997 -1683312.840990964 1252957.9579573565
2827288.15515854 1345627.0432750578 -1904790.2774286375
2837382.9545593895 1362919.2185129893 -1925078.1251401564
5310799.268909579 -132889.4757242808 1388666.2917419085
5221937.71239985 -140228.93781497338 1349752.4735772216
5376891.167040396 -155947.03708863552 -1456639.0446143174
5465150.889585297 -148972.1996731954 -1496799.578338574
9475321.672334623 -704988.9107098377 -1353273.42741805
9442216.565304723 -709853.446677884 -1258998.8808392873
24218638.66570537 6301562.476427314 1087349.4016534768
8900243.63945159 -145635.96630265383 -511103.9786284542
8613945.64331977 -143303.8985534013 -442091.07600457576
9862641.645053428 -47950.51274306166 -107219.92239006996
9669466.951873662 117099.16804027688 -235787.59501887183
7403075.014103633 -229499.82333434015 -895747.7128082959
7578727.711645971 -226291.91032297086 -951006.6934968911
9572599.42792585 -86434.18889031422 -240978.49296136684
9217678.302455487 -33420.7462591079 -207673.06457968472
9687499.97061733 -104690.87824414016 208192.48505267454
9386745.862558534 -39865.388923076505 234284.9138916591
7312773.636854892 587827.2422197855 3727268.1510298913
7316022.589700054 559986.9092858572 3687405.245143271
9937436.464473456 -891147.464078823 1417624.8997769838
9963541.486955704 -898467.0485320307 1332753.3500115147
1195268.4066394663 506451.0079833689 -931687.0008869793
1223635.2846662432 512924.6535687588 -947215.8502157881
10262591.505820213 -695926.3080174989 -278225.4388500163
10433487.916245561 -221494.82568155322 -368602.6889413623
8629161.863400064 -190870.97937847985 526821.7827053766
8887699.37042742 -187772.86203605612 612798.8734765311
11513378.89702304 -1674635.8492358762 -2204073.6396676786
11563456.966394374 -1716394.3770366504 -2134987.258075706
10332800.117348583 -674061.3145790093 193.10516112326744
10458546.18365587 -31318.700371155985 -6612.529529915836
7391727.2804929605 -180376.38592622025 905110.7800403691
7565919.406138202 -178637.77739121718 964829.1033055551
10750035.894473033 -1103141.8095850039 -283990.37159445975
10941749.435043536 -921356.4977799922 -281035.8621217307
28635838.364565004 174769.5360418771 -607680.7765733832
9634876.504931875 -227539.84059107513 459599.22590782365
9577561.9293827 -176024.08080016111 426050.45582946244
11527363.121580241 -1591471.4050513173 -81251.47717171362
11347686.298769664 -1638457.5770735645 -89895.38026141927
9309180.842738183 -921305.1474556923 2185752.868318178
9289610.074444838 -950628.3775603973 2097038.9962094298
23308970.09837814 6962696.691421411 3681413.08354304
23850961.235396672 7207900.209661833 3916887.8971637497
28507210.84961989 697222.1776138964 -1020012.4886208351
34306119.342022926 4221223.59890562 5177280.764397907
23493448.699828696 7079681.239287206 -3765459.572931897
23177020.337749355 6450525.770695538 -3591256.102813936
13883948.297521355 -683731.8007481312 -4167396.80291963
13897585.234417971 -627287.2140149368 -4194889.315319253
23842297.434539925 6513407.287761775 -1183612.5124126545
24043129.906177543 6710920.104720387 -2080886.660870069
9510204.04793401 2272878.7367750257 576825.2488905854
10009078.448308006 -130882.47971872184 32752.58114024694
10011450.275332393 -173009.05921712253 8211.444334108772
9463369.382246407 2316255.8064597705 146627.95133175555
9982337.610720415 -141141.46012484725 -108559.16447301727
9989537.034379188 1233578.9784645215 -810672.561098358
23603342.15229725 6542257.520310891 1046941.0609849342
8555749.102832988 -559806.8607062191 3023950.8226646977
8541787.02250046 -589835.8983868536 2957079.797479958
9924514.489427902 -292364.41658379557 -279809.3747919549
10063713.754261427 251146.00993284292 -562973.0216198604
10149022.304055454 -451991.1423755179 -48537.24356332475
10153361.563419707 641306.9542683742 -117543.24348896723
28467142.595649295 132986.56131497514 510334.25581407256
13474070.971098699 -2370327.9519313113 -1007451.4951927032
13389984.159925586 -2318804.5297332136 -1035190.7021910504
10010065.294295087 -156504.19866462282 -23273.113524927747
9465152.633842753 2328280.8361367546 -302127.1720471595
10065944.184545634 -54255.949722146805 461055.579341697
9963497.187277433 -356033.7829657476 372844.9365126776
10281815.700945785 -1044898.9328637116 -813927.8633638789
10420795.503925871 -960544.5023722443 -775889.3026460238
33365759.424847014 4317821.907988159 5119455.628910318
28117193.6875869 1862627.8194258423 123992.78959092838
10207200.365690408 -507150.8772806755 174300.8481882771
10309897.923315946 267748.0888647288 328515.20899425395
10988343.341072278 -1347522.8775836276 591701.7792915032
11159015.312570477 -1274390.449931591 567169.946272544
14970046.911640232 7473287.990279101 -8261752.412417098
14733037.153788254 7464305.581609852 -8342697.060809003
11201956.203278705 -1421868.7106339089 -908986.2078597633
11343279.411737742 -1417462.12125511 -854376.8158314658
15283575.598534241 -2277814.1406118646 -1274776.7232210068
15236806.765776403 -2212949.478225367 -1293450.3145300043
10000583.208018405 -93685.62945095483 -31354.51516833459
9512814.882601608 2290114.4854782135 -743612.5723773002
9787932.68508888 28774.71245484529 286138.1728788728
9933607.752743345 -33936.78483444452 51237.025788720006
13734953.210786749 7570463.501190281 8297653.694998007
13786257.480265666 7588944.509356629 8302817.164375857
17870164.46361216 -1009356.6486921088 1784988.9424368716
17874940.688041076 -982279.6751852825 1847257.1149313143
2462404.6726730005 481189.2570508018 1330101.1700168971
2431578.5835244623 474116.65300039144 1309389.3695773128
34556032.39814184 4661128.835215697 -5506869.722637934
9958692.37170833 -33611.430452905326 -34110.0219034318
10374208.304499576 629168.2592315585 -905281.8477758318
33785656.702727325 5543472.261494889 -5812155.199333578
11943052.088771973 -1804071.849110611 2082129.1605189433
12004568.57026882 -1848639.7286203427 2019520.2441704152
15395801.64018032 -2252228.7329369467 1222445.8471725225
15348121.516402273 -2201516.7523530354 1249989.4772889323
10109084.814480502 -410121.9348153559 -177164.0092272478
10167442.651527965 534976.3326026457 -400079.97071792575
12460373.334133666 -2116568.035049123 263467.15245831595
12325725.623189244 -2090511.0632014142 270736.6393128442
26342971.14387432 4844337.555061026 -1388334.935845303
10981803.98142637 -1558915.3842625269 -1476814.1941546567
10902159.710273417 -1536849.4763647178 -1543429.9962593578
4035019.500441466 266129.02357513376 -1665313.0446936078
4064428.6809647884 276107.3245809648 -1695875.9907365337
8741284.499733204 -588376.4361243073 -3035820.802629709
8721173.350364102 -615999.7266116271 -2967025.61149004
10314009.609749543 -728423.2306138561 788629.573773349
10216345.311331658 -806517.081852719 824627.0463737703
24579437.479867235 5488276.317165686 363134.2047285907
9998317.28338957 -4555.29342261512 -4806.945104064636
11108511.914588604 1979791.1131990897 1560247.6274241903
11169368.545047194 2177613.1046837415 -1703186.4505853693
9999448.325452462 -6578.462464909046 -207.00715781667796
8419872.697827876 351038.14387433825 -4002137.3258456965
8395721.906541863 320358.53320371767 -3953899.676106938
28354287.44304457 244977.56373533647 498129.1489885451
28741204.64087434 573995.2067774362 -134060.52523882512
9989926.83889773 -113807.51368520487 69775.89840131123
9663279.141933825 1773318.9282994003 855784.5997197039
9746176.441170784 -446187.78913830366 -740594.0739403511
9758714.492302591 -494646.39247105626 -788571.7071311445
14135263.160102895 1299908.6576434479 6064654.830480919
14008558.93305204 1345377.1314347852 6082591.115917825
9937552.56811079 -115284.71361121316 105993.37884251738
10235149.353837071 975023.4395007615 963775.4461470807
9038743.98598147 -860986.5072594748 -2058011.2077906139
9072136.401557045 -837815.7269375683 -2146582.8356287414
10279324.724818487 -678777.5421223415 412477.9849495066
10447606.195113083 -357858.98866203154 465825.0494332812
15067461.867640179 961966.8247470468 -5841119.305455621
14951956.91078567 911248.6562161085 -5875651.705927806
996708.3024917786 2040366.1727253585 -2171871.4568418697
993059.5195060733 2062181.3788548696 -2190497.6564763566
10615711.327938385 -989784.0651303845 184148.2625747372
10810519.669431536 -705620.004924933 192064.95596383035
585615.7676254489 1621806.1649947097 1498623.1337759914
602522.4828684652 1607388.7544574777 1500409.7224729906
12548007.320666775 -1546387.1943734738 -3011815.319924915
12521253.56541428 -1497184.1925209393 -3062795.111956477
10096190.281396665 -370740.5433564691 55196.25740797326
9957716.619131854 917203.5807253518 186817.35637999765
27747409.06993405 3569458.79683756 2376197.9387050713
10040646.130856324 -223915.61120687594 96412.09386576338
9890243.60055773 1352322.6050773 499057.7273828322
20792532.517467953 1585784.5902027711 -1824978.5179749997
20781863.70602668 1408161.2856948522 -1887896.2226662566
12106724.05355388 -2067837.34418401 -876877.5973990103
12232726.454976087 -2098733.2944672485 -840979.6483653507
13621651.394733932 -2437583.785302321 725883.1090306106
13533645.791729482 -2385943.1886016545 745713.2910002583
651857.4096470169 293404.232828832 -272641.2970918297
656509.3327640723 301651.5668904257 -277818.10926601855
21476015.633376792 4512207.173402098 -141646.22916693546
21387021.985155772 4453689.232495959 83739.06581342744
20844781.960228067 1695386.419949173 1987837.3920738928
20737917.02632905 1648011.659947291 2092466.1578329839
13514414.857842475 -501934.902419255 4333141.360337918
13458922.536793848 -445989.0911702036 4378416.358587542
10035030.191996418 -249725.23954900086 -84820.58776839515
9841434.541805306 1368991.3941770347 -411855.776797472
6919279.575436706 2573553.7317068116 -4882472.019079146
6878057.575204914 2536445.131730509 -4847567.772879637
9982782.247912498 -22995.23157527799 24260.751641315674
9842576.526243277 2277119.2670391668 1239758.4599320497
10067076.326973287 -271607.8701560027 -10025.038135571387
9854712.671217393 1464891.8801247529 -28804.145161380926
9984636.589202663 -19842.644553378148 -17849.920807828046
9750251.135728547 2552512.0304751336 -1188593.3219036642
576794.8574846231 -321843.3538740579 -53679.45208821265
575512.0048530186 -328631.80533443094 -57377.13983425041
27505213.287011042 4125011.535276788 -2890516.4537830325
27502878.566855416 2872345.85891237 -514568.1012844772
5452513.908662732 2584247.134119231 4104904.092843878
5447912.353998797 2610442.471191557 4126133.622087514
1274241.7266484485 647652.5022166449 535950.8954631743
1279130.4873295897 653442.2211538707 545650.7226755514
26253308.190426745 4737847.124551938 2491213.565218419
9905328.153555714 -194208.4811743578 223794.21610422255
10000976.67421419 235664.9058601223 523890.05133904936
10034267.646013686 -332033.86272230203 218522.5176412305
10191903.468629884 524867.0539851435 588868.4061395532
12603574.493567523 -1537468.2766133647 3071186.707126869
12569555.29647259 -1486626.477359247 3129796.7242865553
28665196.369156007 594822.1782924411 -45375.789311069384
28366469.701880183 2121183.750106865 1102043.0959948937
-319554.52960498154 90207.78079845128 -211153.49954998298
-256643.08281793102 126046.5624875779 332307.14271966735
-315728.69183510676 93213.38342526898 -207999.80408465373
-257983.3446996728 124255.97554766183 332864.7168367439
SCALARS Strain double 1
LOOKUP_TABLE default
8.791974639891436e-05 -3.1162032196657366e-05 -2.154166345579094e-05
8.75415472725056e-05 -3.072718923423821e-05 -2.1233554521420662e-05
4.885439113161814e-05 -1.650968756103183e-05 -5.985063222080221e-06
4.916899921454005e-05 -1.5936239121208445e-05 -6.125416058296122e-06
5.765332086251875e-05 -2.473279019287271e-05 1.4990123956919807e-05
5.7098136490169645e-05 -2.4493934626386362e-05 1.5661974474466955e-05
1.1651923279692418e-05 2.3915413304206523e-06 -2.3809878467857968e-05
1.1675515331757177e-05 2.4601169814671747e-06 -2.4063476564251955e-05
2.5724356305898387e-05 -8.298698348063243e-06 1.7358328646773856e-05
2.53077230468478e-05 -8.205818516994846e-06 1.6871905919715266e-05
2.6075361914264352e-05 -8.504876861542086e-06 -1.820798805767897e-05
2.6489627641765654e-05 -8.598641666099925e-06 -1.8709994729232178e-05
4.657124204590179e-05 -1.7055699098126077e-05 -1.691591784272562e-05
4.641909903513504e-05 -1.7031338539756256e-05 -1.573748601049109e-05
0.00010734697078258259 -4.634755400405276e-06 1.3591867520668462e-05
4.2999684756453775e-05 -1.3537062779510244e-05 -6.388799732855678e-06
4.1619888523489385e-05 -1.311292111321795e-05 -5.526138450057197e-06
4.7485705763828595e-05 -1.4455495222399471e-05 -1.3402490298758744e-06
4.631892885318068e-05 -1.338336979577799e-05 -2.9473449377358976e-06
3.592271615915354e-05 -1.17808765748338e-05 -1.11968464101037e-05
3.676257348434068e-05 -1.20187991529652e-05 -1.1887583668711137e-05
4.614677732977377e-05 -1.4222182775327253e-05 -3.0122311620170854e-06
4.436396406890971e-05 -1.3455404985556508e-05 -2.5959133072460598e-06
4.672551554851237e-05 -1.4475677256871823e-05 2.6024060631584315e-06
4.518608403478585e-05 -1.3730236286974215e-05 2.9285614236457387e-06
3.430973780860076e-05 -7.721177157868666e-06 4.659085188787364e-05
3.436551210054951e-05 -7.859710902039226e-06 4.609256556429089e-05
4.9061445690851457e-05 -1.8617203862600285e-05 1.7720311247212295e-05
4.919750769959287e-05 -1.8690045647205493e-05 1.6659416875143937e-05
5.016024539636806e-06 7.109157980361971e-07 -1.164608751108724e-05
5.143066772094306e-06 7.01125327735028e-07 -1.1840198127697354e-05
5.0343122106853195e-05 -1.8147614229632516e-05 -3.477817985625204e-06
5.0480463288221295e-05 -1.6113178848823182e-05 -4.607533611767029e-06
4.1761649794296206e-05 -1.3363555473069709e-05 6.585272283817209e-06
4.300015013960692e-05 -1.372155131328982e-05 7.659985918456637e-06
5.776812332593175e-05 -2.465696883818648e-05 -2.755092049584598e-05
5.80691119206989e-05 -2.4929958975745013e-05 -2.668734072594633e-05
5.064912746020331e-05 -1.8143756489344158e-05 2.4138145140408195e-09
5.032664323926547e-05 -1.5235012285903447e-05 -8.265661912394799e-08
3.579730863591743e-05 -1.1528339279202444e-05 1.1313884750504615e-05
3.6632263169978686e-05 -1.1771219227080182e-05 1.2060363791319438e-05
5.327393479494489e-05 -2.0808425855417856e-05 -3.5498796449307473e-06
5.3933444155661225e-05 -2.021096792448583e-05 -3.5129482765216334e-06
0.00013742022838342518 -4.046145179484434e-05 -7.596009707167292e-06
4.6649704120717285e-05 -1.4990398038801142e-05 5.744990323847796e-06
4.629985170010937e-05 -1.4660060863533516e-05 5.32563069786828e-06
5.771540645719056e-05 -2.4277309334256684e-05 -1.0156434646464204e-06
5.6919344095633336e-05 -2.4244055128386845e-05 -1.1236922532677409e-06
4.608448262968699e-05 -1.7856054809024747e-05 2.732191085397723e-05
4.603268551785075e-05 -1.7968804807181966e-05 2.6212987452617865e-05
0.00010202000524496019 -1.4420354851937846e-07 4.6017663544288e-05
0.0001042720729447025 2.529415338597691e-07 4.896109871454687e-05
0.0001360482894054602 -3.776413979457726e-05 -1.2750156107760441e-05
0.00015884496279976559 -2.9185635594717587e-05 6.471600955497385e-05
0.0001027381938848199 1.5214725643556146e-07 -4.706824466164871e-05
0.00010212433945452256 -2.416251589563784e-06 -4.48907012851742e-05
6.773590306608556e-05 -2.331209754809874e-05 -5.209246003649537e-05
6.772005480106948e-05 -2.3060398001636195e-05 -5.243611644149067e-05
0.00010523209253947784 -3.073470877885589e-06 -1.4795156405158183e-05
0.00010591275901327611 -2.413552245831138e-06 -2.6011083260875864e-05
4.244394436010338e-05 -2.789338834640276e-06 7.210315611132317e-06
4.830934227030588e-05 -1.5065413529861173e-05 4.0940726425308676e-07
4.838150477450736e-05 -1.5271366066427117e-05 1.0264305417635964e-07
4.2156214616867674e-05 -2.513245231798805e-06 1.8328493916469442e-06
4.819557715748976e-05 -1.5076167035293133e-05 -1.3569895559127161e-06
4.62474199078838e-05 -8.477317941582857e-06 -1.0133407013729475e-05
0.00010404165815482684 -2.5901207950878997e-06 1.3086763262311677e-05
4.1940822889638715e-05 -1.5031401882481324e-05 3.779938528330872e-05
4.1917008615464027e-05 -1.5155634640081691e-05 3.696349746849947e-05
4.813569141539924e-05 -1.5719801747173876e-05 -3.497617184899436e-06
4.802100938116142e-05 -1.3307539020892238e-05 -7.037162770248255e-06
4.944528676330823e-05 -1.6811047276885357e-05 -6.067155445415594e-07
4.788927633239997e-05 -1.1561064974795856e-05 -1.4692905436120903e-06
0.00013666945493872503 -4.041902027586449e-05 6.379178197675906e-06
6.81979295994139e-05 -3.082956366952365e-05 -1.2593143689908789e-05
6.771935345598823e-05 -3.0460575854379277e-05 -1.2939883777388131e-05
4.835104112449267e-05 -1.5190018206505524e-05 -2.9091391906159685e-07
4.2147444149046766e-05 -2.458004586615727e-06 -3.776589650589494e-06
4.847221619933788e-05 -1.4779034639835752e-05 5.763194741771213e-06
4.841493904888057e-05 -1.6082129515139315e-05 4.660561706408471e-06
5.093887202310048e-05 -1.9853094438208885e-05 -1.0174098292048489e-05
5.148537910883436e-05 -1.9647995930528876e-05 -9.698616283075298e-06
0.00015418467717524315 -2.736493230512474e-05 6.399319536137897e-05
0.00013249233337384207 -3.159870330216455e-05 1.5499098698866051e-06
4.9804546292666404e-05 -1.7160148975902878e-05 2.178760602353464e-06
4.918064181084869e-05 -1.3582794654471416e-05 4.106440112428174e-06
5.477211636705465e-05 -2.232704749954477e-05 7.396272241143791e-06
5.548717522860556e-05 -2.2221610787032377e-05 7.089624328406799e-06
6.119259862767549e-05 1.4337855369168423e-05 -0.00010327190515521373
6.006608403512163e-05 1.4636511709006614e-05 -0.00010428371326011254
5.590633084840807e-05 -2.2992574863545776e-05 -1.1362327598247041e-05
5.65794136928571e-05 -2.317522088834824e-05 -1.0679710197893323e-05
7.676403769575866e-05 -3.299464817390452e-05 -1.5934709040262586e-05
7.644563273675007e-05 -3.2615343788261e-05 -1.6168128931625056e-05
4.821485046564275e-05 -1.4874329768540752e-05 -3.919314396041824e-07
4.243163719691415e-05 -2.7102402851070593e-06 -9.295157154716253e-06
4.701586668919435e-05 -1.397887063976836e-05 3.5767271609859093e-06
4.780667686631575e-05 -1.4490476493545421e-05 6.404628223590001e-07
5.511449115591185e-05 1.6586430470933923e-05 0.00010372067118747508
5.533449099739749e-05 1.660128492921601e-05 0.0001037852145546982
8.737005508759517e-05 -3.062695186430653e-05 2.2312361780460894e-05
8.735396437786857e-05 -3.0503662892296172e-05 2.3090713936641425e-05
1.1144461036335384e-05 -1.238135311303357e-06 1.6626264625211212e-05
1.1006459555886275e-05 -1.2276775098891698e-06 1.636736711971641e-05
0.00015941198917104388 -2.7431158097244493e-05 -6.883587153297418e-05
4.792680673482789e-05 -1.452509202867983e-05 -4.2637527379289747e-07
4.896854724389475e-05 -1.1937953039030355e-05 -1.1316023097197899e-05
0.00015443564915518682 -2.2078003602515904e-05 -7.265193999166974e-05
6.0020546363005556e-05 -2.5898978248760587e-05 2.6026614506486787e-05
6.038057927334098e-05 -2.620197259471629e-05 2.5244003052130188e-05
7.726668394260291e-05 -3.3033505889380016e-05 1.5280573089656523e-05
7.696431029859702e-05 -3.272092888112364e-05 1.5624868466111652e-05
4.919289132175533e-05 -1.6552150861343783e-05 -2.214550115340598e-06
4.8110335344938326e-05 -1.2092579148344923e-05 -5.000999633974072e-06
6.295838338773271e-05 -2.8147500169659728e-05 3.2933394057289493e-06
6.227345645264263e-05 -2.7828022837298975e-05 3.3842079914105522e-06
0.00011966187441036548 -1.4704585519717652e-05 -1.7354186698066292e-05
5.504557017646697e-05 -2.3333925859088647e-05 -1.846017742693321e-05
5.4630839197994384e-05 -2.3112968218493958e-05 -1.9292874953241973e-05
1.9015292275812148e-05 -4.540273204602434e-06 -2.0816413058670098e-05
1.9142290786492783e-05 -4.534717690906115e-06 -2.119844988420667e-05
4.287402610851201e-05 -1.543635474059745e-05 -3.794776003287135e-05
4.281717917474803e-05 -1.5540152556350277e-05 -3.70878201436255e-05
5.06371950910274e-05 -1.837801016124384e-05 9.857869672166862e-06
5.0280290557151316e-05 -1.861259940025104e-05 1.0307838079672126e-05
0.00011025458934960352 -9.065167917281175e-06 4.539177559107383e-06
4.807540322796325e-05 -1.4442550377112915e-05 -6.008681380080795e-08
5.055083932994653e-05 -6.5036656787379405e-06 1.9503095342802378e-05
5.055809910404842e-05 -5.640372398223155e-06 -2.1289830632317115e-05
4.8083758962461224e-05 -1.4453908462022342e-05 -2.587589472708473e-09
3.997385218589219e-05 -1.0456363776317425e-05 -5.002671657307122e-05
3.990199205086899e-05 -1.056902903249443e-05 -4.9423745951336715e-05
0.0001359653566054037 -3.971783014027901e-05 6.226614362356814e-06
0.0001373509907636592 -3.8694068199446476e-05 -1.6757565654853151e-06
4.819263987020812e-05 -1.4955699833435208e-05 8.721987300163904e-07
4.390040126655772e-05 -5.411850068657437e-06 1.06973074964963e-05
4.75001575861167e-05 -1.620211885331509e-05 -9.25742592425439e-06
4.763032889444187e-05 -1.645317663539343e-05 -9.857146339139307e-06
6.608312770581664e-05 -1.4137837934554905e-05 7.580818538101149e-05
6.540839323856542e-05 -1.3736493021542435e-05 7.603238894897281e-05
4.794297106824113e-05 -1.4887261942521394e-05 1.3249172355314674e-06
4.780116500955213e-05 -1.0074621955049808e-05 1.204719307683851e-05
4.4697307394996694e-05 -1.717600818775921e-05 -2.5725140097382675e-05
4.48244284597996e-05 -1.711277234329174e-05 -2.6832285445359274e-05
5.039883647814994e-05 -1.8089302690230224e-05 5.155974811868833e-06
5.074501871015237e-05 -1.6789138688442097e-05 5.822813117916015e-06
7.10522683664234e-05 -1.710707565165869e-05 -7.301399131819526e-05
7.057010727846555e-05 -1.7184319312594195e-05 -7.344564632409757e-05
1.8490310128565916e-06 8.371892701816467e-06 -2.7148393210523378e-05
1.8000245473539057e-06 8.482036168283882e-06 -2.7381220705954453e-05
5.24646468628726e-05 -2.0069699343807213e-05 2.301853282184215e-06
5.2991373417831814e-05 -1.8984499546896124e-05 2.4008119495478795e-06
4.763169140722884e-07 6.952506897630169e-06 1.8732789172199892e-05
5.783935410154897e-07 6.8588077384468186e-06 1.875512153091238e-05
6.25573244181674e-05 -2.553264130083417e-05 -3.7647691499061435e-05
6.235773472678154e-05 -2.5257501260313577e-05 -3.8284938899455966e-05
4.907409829040194e-05 -1.6344219364305137e-05 6.899532175996657e-07
4.655074781208773e-05 -9.952458677952906e-06 2.335216954749971e-06
0.00012825274726385955 -2.2859441942993546e-05 2.9702474233813394e-05
4.859529237604994e-05 -1.5558218511845065e-05 1.205151173322042e-06
4.5598782783819893e-05 -7.763223437932781e-06 6.238221592285404e-06
9.76769093288804e-05 -2.236526521652699e-05 -2.28122314746875e-05
9.788180442460686e-05 -2.320383570246708e-05 -2.359870278332821e-05
6.118786181158212e-05 -2.740314692427968e-05 -1.0960969967487628e-05
6.183820405440511e-05 -2.7733419379615745e-05 -1.0512245604566882e-05
6.900445447271457e-05 -3.136576540251202e-05 9.073538862882634e-06
6.85068689822595e-05 -3.099056214481009e-05 9.32141613750323e-06
2.710750672107536e-06 4.7041831699387895e-07 -3.408016213647872e-06
2.7212204937353106e-06 5.033594570250196e-07 -3.472726365825232e-06
9.674208404498152e-05 -9.28171882986028e-06 -1.7705778645866925e-06
9.639863084330283e-05 -9.43469886082102e-06 1.046738322667843e-06
9.777002901078518e-05 -2.1913693115957924e-05 2.4847967400923662e-05
9.732458427088877e-05 -2.1987324268997228e-05 2.615582697291229e-05
6.569709292580891e-05 -2.1905093075826917e-05 5.416426700422396e-05
6.534961184685053e-05 -2.1556085827924796e-05 5.473020448234427e-05
4.8605518095486136e-05 -1.567420335167272e-05 -1.0602573471049393e-06
4.5340082324770186e-05 -7.612687347906528e-06 -5.1481972099684e-06
2.9553910845791647e-05 2.393124322479808e-06 -6.1030900238489335e-05
2.940925017156617e-05 2.2741723998511276e-06 -6.059459716099546e-05
4.802731162204366e-05 -1.450879762475494e-05 3.0325939551644595e-07
4.4035772817940035e-05 -3.2483350520856553e-06 1.5496980749150622e-05
4.879114753855811e-05 -1.5825628693499948e-05 -1.2531297669464232e-07
4.526560147682677e-05 -7.170778467502236e-06 -3.600518145172616e-07
4.803167972388787e-05 -1.449631548708739e-05 -2.2312401009785059e-07
4.3194699647048115e-05 -1.7911697607857254e-06 -1.4857416523795803e-05
3.237249344455964e-06 -2.3792394765357925e-06 -6.709931511026581e-07
3.2408728194872497e-06 -2.4100259941843104e-06 -7.172142479281303e-07
0.00012628706647321156 -1.9839194475127518e-05 -3.6131455672287904e-05
0.00012808257119798896 -2.585825822665507e-05 -6.432101266055966e-06
2.2486729655898864e-05 4.560062315001977e-06 5.131130116054847e-05
2.2426825060775626e-05 4.692638293230376e-06 5.157667027609393e-05
5.1920479614589185e-06 1.2758653087601463e-06 6.699386193289679e-06
5.207201062420329e-06 1.2966493988220858e-06 6.820634033444392e-06
0.000119384394485871 -1.5087237175846565e-05 3.114016956523024e-05
4.790187835532703e-05 -1.5220225611735923e-05 2.7974277013027818e-06
4.774171731950074e-05 -1.3291481232712185e-05 6.548625641738117e-06
4.872056636937682e-05 -1.6068818060223118e-05 2.7315314705153806e-06
4.824251611747279e-05 -1.2176461474056835e-05 7.360855076744416e-06
6.281161046419005e-05 -2.5569906849440486e-05 3.838983383908586e-05
6.25747271138479e-05 -2.5276408972601078e-05 3.912245905358195e-05
0.00013695552747917437 -3.848431121372289e-05 -5.671973663883674e-07
0.00013331785854253905 -3.071517865604418e-05 1.3775538699936173e-05
-1.666427230021716e-06 8.945872099997392e-07 -2.639418744374787e-06
-1.4156589017509827e-06 9.761513814084484e-07 4.153839283995842e-06
-1.6523687829936896e-06 9.035191873836585e-07 -2.599997551058172e-06
-1.4195198911729393e-06 9.694758603729021e-07 4.160808960459297e-06
POINT_DATA 243
VECTORS Displacement float
0.0 0.0 0
3.6998426190448015e-06 -2.3854171006155275e-07 0
7.285707445980333e-06 1.7663549064793358e-09 0
1.5005742423310612e-05 -2.9611549887559913e-08 0
1.8560016354598884e-05 -2.49947861841061e-07 0
2.2306540049484105e-05 6.125656507216674e-07 0
2.2391687341524476e-05 -8.518973717156758e-07 0
1.8653409186048745e-05 2.4219587311381804e-07 0
1.5025076308546481e-05 2.938993543300864e-09 0
7.272589155780777e-06 6.40759287787899e-09 0
3.705686681285987e-06 2.2877565174359377e-07 0
0.0 0.0 0
8.666819418483715e-07 4.820630316711325e-07 0
1.5733072341229032e-06 6.890262085582854e-07 0
2.243773909972195e-06 8.341416810228211e-07 0
2.88572221359349e-06 9.409166192952369e-07 0
3.4080850829953386e-06 1.034047628154264e-06 0
3.71261367800667e-06 1.0047299030761985e-06 0
3.7383006207404144e-06 6.054818340918033e-07 0
4.146985993065974e-06 -2.669062025404614e-07 0
4.70902990395055e-06 -3.337560789827282e-07 0
5.519843649819577e-06 -3.3921349672286984e-07 0
9.4860123018998e-06 5.970953754853809e-07 0
1.113590516753191e-05 6.928638025546094e-07 0
1.278739771886346e-05 5.729221772911715e-07 0
1.6761736165755428e-05 -3.511173824659041e-07 0
1.7572710518517442e-05 -3.443547818259818e-07 0
1.811824275006349e-05 -2.775108465256004e-07 0
1.8501806374774857e-05 5.618734690322847e-07 0
1.85680259947973e-05 9.517786953552705e-07 0
1.887343861806442e-05 9.738805481318092e-07 0
1.9412324875206204e-05 8.780856554208489e-07 0
2.0079478939780168e-05 7.772315689408742e-07 0
2.080561450603122e-05 7.006736070692401e-07 0
2.1555052228579205e-05 6.481904688793936e-07 0
2.233370901568357e-05 4.3329112044225985e-07 0
2.2354623595896187e-05 2.5269035742415825e-07 0
2.2369156854748908e-05 6.810912156265672e-08 0
2.2380788510217544e-05 -1.201540101142907e-07 0
2.2391280322414413e-05 -3.0840395966346677e-07 0
2.2398674822374688e-05 -4.925965152637889e-07 0
2.23982065327134e-05 -6.726074616083606e-07 0
2.163941935829704e-05 -8.617117305633394e-07 0
2.0892369859556328e-05 -8.853159157500163e-07 0
2.0174763111560847e-05 -9.369355225724031e-07 0
1.950035507155977e-05 -1.0047018833774424e-06 0
1.8957723811441737e-05 -1.0751289952725035e-06 0
1.8643769300878088e-05 -1.0312473284865327e-06 0
1.8615347626947658e-05 -6.177521605166139e-07 0
1.8197752660349883e-05 2.7070669615581584e-07 0
1.762652181970178e-05 3.374588319483904e-07 0
1.6807014818781724e-05 3.4263662378837087e-07 0
1.2828830203867934e-05 -5.756338210225342e-07 0
1.1158643694486985e-05 -6.677296204103561e-07 0
9.478006911615446e-06 -5.433748614715988e-07 0
5.516288837683976e-06 3.3027274465346237e-07 0
4.7020532095904e-06 3.2287841196811254e-07 0
4.152402273416083e-06 2.5622844871278965e-07 0
3.7639167317203226e-06 -5.929274622823733e-07 0
3.700423489906778e-06 -9.955071549415772e-07 0
3.4037082576324523e-06 -1.0301466185755271e-06 0
2.884266663301823e-06 -9.402337591889958e-07 0
2.2509587800217405e-06 -8.253234330477917e-07 0
1.5712283202409785e-06 -6.816636917726909e-07 0
8.496342234051063e-07 -4.777381656073897e-07 0
0.0 0.0 0
0.0 0.0 0
0.0 0.0 0
0.0 0.0 0
0.0 0.0 0
0.0 0.0 0
0.0 0.0 0
2.1844156607441004e-05 -3.633941974694512e-08 0
4.633391559442378e-07 -2.297782078472034e-08 0
3.154518268698817e-06 8.145646276482494e-07 0
1.9190437774766562e-05 -8.63737746374965e-07 0
3.662186477957655e-06 -9.046389416986576e-07 0
1.8615671755818655e-05 8.498012009862809e-07 0
1.9763919675515946e-05 6.488550504253668e-07 0
2.5262205162374974e-06 -7.123949635160434e-07 0
1.6744460152718776e-05 -3.9403867117658186e-07 0
1.545120063544287e-05 -2.706851428700149e-07 0
5.581987417330428e-06 3.878924916374685e-07 0
6.885392702809914e-06 2.5759379561972247e-07 0
1.608711323531097e-05 -4.1385056507496575e-07 0
6.234584628843749e-06 3.9284890328290045e-07 0
2.0652840540045425e-05 -6.63679054439193e-07 0
1.6966878990660269e-06 5.158097563685435e-07 0
5.745557934950783e-06 -4.109143639881679e-07 0
1.652813113982818e-05 3.868574246206607e-07 0
1.685713713503174e-05 -4.499113060884171e-07 0
5.450524791372451e-06 4.223413117752256e-07 0
1.395584477753376e-05 -2.8521676484699167e-08 0
8.48045489918568e-06 5.774570806109663e-08 0
1.6564245228095916e-05 -3.387237401540779e-08 0
1.7639482054084033e-05 -4.214689950737179e-07 0
5.727906958095234e-06 2.700237389554791e-09 0
4.661436451075532e-06 3.856191872901373e-07 0
2.1858672580300298e-05 -4.0254746410512904e-07 0
4.7316716791923334e-07 1.0030441709773674e-07 0
1.745002216730699e-05 -2.02570089871381e-08 0
1.8215022572536143e-05 7.785083329826755e-09 0
4.836690877074712e-06 -1.9862798701163364e-08 0
4.064978941408524e-06 -5.752034555324668e-08 0
6.883787106543687e-06 -2.6093208662760604e-07 0
1.5366237089368955e-05 2.3041974811355727e-07 0
5.377419547724862e-06 -6.112622639438201e-07 0
1.689794840599748e-05 5.80164104775451e-07 0
2.1288679623055794e-05 4.2752388026202117e-07 0
9.963425745196926e-07 -3.529678310181292e-07 0
1.3917412517135892e-05 1.5102260442549382e-08 0
8.034204245453393e-06 -1.9628398172887405e-08 0
3.907972889737346e-06 -3.874128832870608e-07 0
3.388564929370592e-06 -1.3363524282113631e-07 0
1.83661456573656e-05 3.327261703789039e-07 0
1.888238134033372e-05 7.40812806160233e-08 0
1.757356984622455e-05 -7.546904580169819e-07 0
4.750155133348644e-06 7.300737386251646e-07 0
1.0036903197523935e-05 -1.6773874337877803e-07 0
3.2444943307713624e-06 1.7054292486342397e-07 0
2.5935860309895013e-06 3.7134603520491427e-08 0
1.9035432484710045e-05 -2.2927345579894906e-07 0
1.9671151109032214e-05 -1.078933514328816e-07 0
2.7662823168099527e-06 -2.2791309497400163e-07 0
1.988984996207618e-06 -6.02004097832951e-08 0
1.7898853013121098e-06 1.3313170681516542e-07 0
1.9495137450501897e-05 1.6185888170924672e-07 0
2.0264473265747163e-05 -1.3931581500463738e-08 0
2.047562789163959e-05 -2.3308607799421576e-07 0
2.1616470132982513e-06 -2.8865979957058914e-07 0
2.009380781609265e-05 2.2589059680629112e-07 0
4.56590258867332e-06 -7.086106755802567e-07 0
1.7708534599144423e-05 6.755192238493507e-07 0
4.782757021648885e-06 -7.028555912529361e-07 0
1.749439018937669e-05 6.628019720591104e-07 0
2.098999091775245e-05 -1.5237948476472188e-07 0
1.2747691913017834e-06 4.559620896932211e-08 0
1.2381771261097294e-05 2.3983731979183655e-07 0
2.0723476721235293e-05 -4.1204683235568177e-07 0
1.5645657631345434e-06 2.735708534055104e-07 0
7.634042932769864e-06 -6.952957784102124e-08 0
1.4603109557279536e-05 4.180705432403201e-08 0
4.1585211070471345e-06 -4.0739632211904726e-07 0
1.8112474675370897e-05 3.791559757498901e-07 0
1.8170889372346077e-05 -1.7467073235658292e-07 0
4.173274235763569e-06 1.7091178001497807e-07 0
4.128820025855923e-06 -8.771731796599918e-07 0
1.814643656491181e-05 8.338290940372146e-07 0
1.915996182356084e-05 7.573167633656105e-07 0
3.1232153219002287e-06 -8.217276901020037e-07 0
2.9331725112982865e-06 -5.367180607651032e-07 0
1.9337070820609412e-05 4.708511394507646e-07 0
1.4039329911776194e-05 -1.5543189506249235e-08 0
8.359039204845373e-06 1.127977813286479e-09 0
2.041322298348277e-05 5.639708437930226e-07 0
1.8848462954770526e-06 -6.011447336135053e-07 0
1.3322887066364229e-05 3.1459676432974246e-08 0
1.2941557739807496e-05 -5.8413136660431396e-08 0
5.422567948586766e-06 -4.0681001940402343e-07 0
1.6858895428770025e-05 3.704149310982696e-07 0
2.0815283493035426e-05 3.29881506005131e-08 0
1.437713547024446e-06 -9.54467950813554e-08 0
1.0167150327563261e-05 2.5915562290158314e-07 0
2.1177980278853182e-05 -6.958339257240845e-07 0
1.9744307456574383e-05 -7.197892156318483e-07 0
2.5906955891935547e-06 6.480128132602888e-07 0
1.1914557465246166e-06 4.5380183575505056e-07 0
9.233289321425444e-06 5.86272915916774e-08 0
1.9346937307389253e-05 -5.028882357333032e-07 0
1.875314522334874e-05 -6.450316097528024e-07 0
1.867731867589942e-05 -9.508679268893329e-07 0
2.9530239517866146e-06 4.4132634797989645e-07 0
3.559981465670543e-06 5.994878075958398e-07 0
3.665956920681729e-06 9.154987735258781e-07 0
1.4640899861938526e-05 -7.90143861107477e-08 0
7.75606746754835e-06 5.451618202594494e-08 0
2.1826759273148004e-05 3.5096624983895937e-07 0
2.12691877380277e-05 2.2117335220461698e-07 0
4.6408433889661743e-07 -1.5217508376158178e-07 0
9.93580740943805e-07 -2.0086095651178293e-07 0
2.0252390321066008e-05 -5.496564335474815e-07 0
2.058741344658396e-06 4.45615553012542e-07 0
2.1852247438560472e-05 -5.702760533674016e-07 0
5.155423085095779e-07 4.0730644635227774e-08 0
4.935078791073422e-07 1.6389773243333884e-07 0
2.179549982834411e-05 -2.2045933404795307e-07 0
1.825621751336533e-05 -9.267090900744706e-07 0
4.08485117985978e-06 9.022687152143203e-07 0
1.8758033608978782e-05 5.842250957136765e-07 0
3.5166732508125374e-06 -6.448074054524965e-07 0
4.602896951255393e-06 -4.07828046204624e-07 0
1.767581766019715e-05 3.622411392308387e-07 0
1.7725243798826962e-05 -2.7212024226474995e-07 0
4.611523556003957e-06 2.6702318177739214e-07 0
2.183459810041593e-05 1.4927209922197198e-07 0
4.63671235869633e-07 -8.342124322943827e-08 0
1.6040945536988315e-05 3.4531859746806894e-07 0
6.231447850426536e-06 -3.760317803796628e-07 0
4.733710672900217e-06 -3.5011308356141806e-07 0
1.7540988605925426e-05 3.237698243852688e-07 0
2.1209901862397808e-05 -3.190513319972878e-07 0
2.14282581803053e-05 -4.996160722540025e-07 0
1.074478091407985e-06 1.4537851485471694e-07 0
8.839834309225304e-07 2.3184919013172112e-07 0
1.3648786305623174e-05 -3.2464348313363575e-08 0
6.9004165207025594e-06 9.163443658949709e-10 0
1.540622548428525e-05 -2.9022318491238805e-08 0
2.1348892558264684e-05 -1.1173278142745089e-07 0
9.262166286131425e-07 1.0309425526985477e-08 0
1.993129826442961e-05 -3.526270154938414e-07 0
2.349254623673265e-06 2.7070607630979063e-07 0
1.8151564841182917e-05 6.546546963350857e-07 0
4.124879812200833e-06 -7.057029009421432e-07 0
5.2464666233400255e-06 6.31228986547663e-07 0
1.708070315767207e-05 -6.469852331961644e-07 0
2.2980431401329758e-06 -4.6550928295830293e-07 0
1.579973217742023e-06 -2.8148922173271086e-07 0
1.9970270299640384e-05 4.0485415088834623e-07 0
2.0673305152617974e-05 2.4895142530267023e-07 0
3.909058578315105e-06 2.893407620619957e-07 0
1.8383042482875687e-05 -3.360785379724239e-07 0
2.1324677568180973e-05 2.0549734837724743e-08 0
9.431352086265658e-07 -6.927467068736477e-08 0
1.151268917291064e-05 -1.5160607154632253e-08 0
1.8845523042362876e-05 2.918026883120192e-07 0
3.42457417502489e-06 -3.5240054344241655e-07 0
2.0917298109222125e-05 -5.235212038690036e-07 0
1.3959633322450289e-06 3.484283002816767e-07 0
9.281977648496831e-06 3.005596076565339e-07 0
2.177363243493987e-05 -6.916054376605552e-07 0
5.860511899515133e-07 2.581144283925653e-07 0
2.1932164975321293e-05 4.6141824675867794e-07 0
3.646652855013286e-07 -1.5072596964548486e-07 0
1.8145465495090838e-05 6.878681093831785e-07 0
4.126088480403215e-06 -7.222368975855807e-07 0
1.29206773759679e-05 -2.30589826679171e-07 0
1.3128014914343512e-05 2.567498574638872e-07 0
8.838686436415322e-06 -9.36291184818223e-08 0
1.8163252609797665e-05 -7.392695177586596e-07 0
4.156529628075863e-06 7.049638025825337e-07 0
1.1896014269538804e-05 -3.0995248991105235e-07 0
4.396895541610511e-06 6.82769894765638e-07 0
1.7942199223130592e-05 -6.97190073341912e-07 0