# vtk DataFile Version 2.0
Really cool data
ASCII
DATASET POLYDATA
POINTS 202 float
0.0 0.0 0.0
0.125 0.0 0.0
0.125 0.02777777777777778 0.0
0.175 0.02777777777777778 0.0
0.175 0.0 0.0
0.3 0.0 0.0
0.3 0.1 0.0
0.175 0.1 0.0
0.175 0.07222222222222223 0.0
0.125 0.07222222222222223 0.0
0.125 0.1 0.0
0.0 0.1 0.0
0.01562500001914041 0.0 0.0
0.03125000004302709 0.0 0.0
0.04687500009029187 0.0 0.0
0.06250000012942511 0.0 0.0
0.078125000069625 0.0 0.0
0.09374999998136457 0.0 0.0
0.1093749999689982 0.0 0.0
0.125 0.01388888891927587 0.0
0.1374999999728949 0.02777777777777778 0.0
0.1500000000514996 0.02777777777777778 0.0
0.1624999999674739 0.02777777777777778 0.0
0.175 0.01388888884757369 0.0
0.1906249999454511 0.0 0.0
0.2062499999464675 0.0 0.0
0.2218749999813653 0.0 0.0
0.2375000000284603 0.0 0.0
0.253125000025411 0.0 0.0
0.2687499999464675 0.0 0.0
0.2843749999108921 0.0 0.0
0.2999999999999999 0.01250000000785633 0.0
0.3 0.02500000002464271 0.0
0.3 0.03750000005532045 0.0
0.2999999999999999 0.05000000007786666 0.0
0.3 0.06250000001503192 0.0
0.2999999999999999 0.0749999999440657 0.0
0.3 0.08749999994628305 0.0
0.2843749999369807 0.1 0.0
0.2687499999742503 0.1 0.0
0.253124999894968 0.1 0.0
0.2374999998970008 0.1 0.0
0.2218749999180072 0.09999999999999999 0.0
0.2062499998726061 0.09999999999999999 0.0
0.1906249999261387 0.1 0.0
0.175 0.08611111106638777 0.0
0.1624999999105533 0.07222222222222223 0.0
0.1499999998834483 0.07222222222222224 0.0
0.1374999998590537 0.07222222222222223 0.0
0.125 0.08611111113550568 0.0
0.1093749999923767 0.1 0.0
0.09374999993596433 0.1 0.0
0.07812499987955196 0.1 0.0
0.06249999985295514 0.1 0.0
0.04687499989276568 0.1 0.0
0.03124999993257619 0.09999999999999999 0.0
0.0156249999764525 0.09999999999999999 0.0
0.0 0.08749999998398685 0.0
0.0 0.07499999993815812 0.0
0.0 0.06249999990588191 0.0
0.0 0.04999999987631621 0.0
0.0 0.03749999991857893 0.0
0.0 0.0249999999459339 0.0
0.0 0.01249999997735459 0.0
0.2902277680509518 0.04920737592361865 0.0
0.01083389107838104 0.05713811997792447 0.0
0.06872755195758748 0.01634728299125188 0.0
0.2275580672595728 0.08267307213793468 0.0
0.2452104635269591 0.01346571247762816 0.0
0.05440593880708434 0.08242413432051542 0.0
0.08086556336890346 0.08649134927532257 0.0
0.216693648273541 0.01398417068340738 0.0
0.2572409949268549 0.0834227232595553 0.0
0.04071715503183103 0.0170374874622358 0.0
0.1365326945688297 0.06039548126488481 0.0
0.123805893706371 0.06080173241135211 0.0
0.1548734003448899 0.0377622854310495 0.0
0.2871023315189539 0.07135140444949026 0.0
0.01211655855359806 0.03700577164041664 0.0
0.09708546061435265 0.01277378853973482 0.0
0.2032074028907496 0.08652514000944687 0.0
0.2727530895928056 0.01346025470199931 0.0
0.02594059037591896 0.0872051960022149 0.0
0.1106962026888415 0.07340001128350289 0.0
0.1107592018005605 0.06108110669685172 0.0
0.1743895054975728 0.0610986538545872 0.0
0.1865647081596436 0.06155378918974139 0.0
0.1876290757825845 0.02606884644157299 0.0
0.1871687944218372 0.03845839105706442 0.0
0.1111607832602838 0.04927977643516915 0.0
0.0983276218532063 0.04892243170943765 0.0
0.09729269205134149 0.06098038406177245 0.0
0.08512458073414614 0.04766008491835885 0.0
0.08313837766267657 0.06003475475551508 0.0
0.07212976284721954 0.04448033391004006 0.0
0.06617486002106249 0.05777873015145406 0.0
0.05650151115076427 0.04884647069529559 0.0
0.05282393351998999 0.06510328755666678 0.0
0.04167809199136019 0.05028279763903351 0.0
0.1358443620809706 0.0380995830162122 0.0
0.03407966919743299 0.0666103911593646 0.0
0.0870577226996154 0.03602710324915148 0.0
0.1749032832720987 0.03850016998835901 0.0
0.04817503832803164 0.03477645855256864 0.0
0.03368432178059008 0.03807886652729365 0.0
0.2004848733306843 0.02595995975240771 0.0
0.1995573800964816 0.03843502401013688 0.0
0.2112582578932751 0.03926870216779419 0.0
0.2105310074536904 0.04803469892301985 0.0
0.2228306647041372 0.04280788358024131 0.0
0.2185465351259381 0.05364690201097248 0.0
0.2350282178732523 0.04832671804339073 0.0
0.2111800200874728 0.06235381761312597 0.0
0.2312741475156471 0.0638168457992192 0.0
0.2473095055587336 0.05275845015215553 0.0
0.2488426116063568 0.03972301038759365 0.0
0.2591120519367343 0.04188550367136674 0.0
0.2588535283172776 0.03281505126884304 0.0
0.2590906496985989 0.05427679599130626 0.0
0.2701361719053625 0.0531765180919452 0.0
0.06829544741227145 0.07287939309864558 0.0
0.04442472146089504 0.07450332154272393 0.0
0.1876606837297415 0.0732382435377539 0.0
0.2713924771460355 0.06616171843745862 0.0
0.1958516422868362 0.06187915679438147 0.0
0.02379725026709898 0.04963159906802639 0.0
0.2256342862452244 0.03045430613050673 0.0
0.2029720215719497 0.01318795402558528 0.0
0.2574308411271147 0.01655245716162316 0.0
0.2163834851816671 0.0862783802681909 0.0
0.2199113966860794 0.07164994545455107 0.0
0.08313935947569259 0.01326956985111424 0.0
0.07764228201536882 0.0254343145776625 0.0
0.0640690107430801 0.02874591358374131 0.0
0.2687741447191737 0.04084500294974707 0.0
0.0955206269228437 0.08661913236671782 0.0
0.05599021257106866 0.0138140223302446 0.0
0.2743565245618702 0.08175447375856924 0.0
0.2437851624385306 0.08098207403674647 0.0
0.02779110141413441 0.01358852359864286 0.0
0.1118733346027418 0.02572183884017326 0.0
0.1117039133643282 0.03764086126711534 0.0
0.1868109307502448 0.0503318211138921 0.0
0.2459510458658008 0.06645571101021858 0.0
0.2376492700063076 0.03517791661089635 0.0
0.2298604811048137 0.01733816389198931 0.0
0.1442094708757335 0.03771356298805393 0.0
0.1492842839709103 0.04621237296372632 0.0
0.1625168973242476 0.04897094280577542 0.0
0.1620657948415947 0.06048330861803704 0.0
0.1494227650964657 0.06010966540003246 0.0
0.1359316253080235 0.04877622638268612 0.0
0.2882507585901381 0.02519136967634202 0.0
0.2763394369050274 0.02656324972148592 0.0
0.01154672403348781 0.07612389889701666 0.0
0.02256360404222356 0.07575201893091048 0.0
0.09886326282165174 0.02512105734464014 0.0
0.2915522082606546 0.0776514941923787 0.0
0.01147668181629698 0.04887918305419869 0.0
0.01282421386816649 0.02497980379022879 0.0
0.2903459903458696 0.05764741701517564 0.0
0.09652092220985595 0.07353221210747563 0.0
0.2021825209486202 0.07193117716767697 0.0
0.1236848067161773 0.04928209776248501 0.0
0.08205262498611918 0.07311960503621975 0.0
0.25171075101581 0.02852803235199118 0.0
0.01071965364396978 0.06787276057897841 0.0
0.289405456873951 0.03767827405416602 0.0
0.03651306058503948 0.08327262130797307 0.0
0.0665451348751832 0.0858532805577228 0.0
0.05865691450294069 0.07321509642987217 0.0
0.02436397163786061 0.03773366617870732 0.0
0.1746402736624191 0.04973326773775155 0.0
0.02531849746939238 0.02618515446588094 0.0
0.1102014496173594 0.08650312363259487 0.0
0.0199648657787914 0.06308758550280016 0.0
0.1892311577715871 0.08630280310831662 0.0
0.2344757437073518 0.07703978922327451 0.0
0.03686402912001982 0.02962995671124431 0.0
0.07533468455342726 0.03330493040634729 0.0
0.2586892698361412 0.06770453885705419 0.0
0.2655647024746854 0.02958757516006837 0.0
0.08636593523489405 0.02497525922274667 0.0
0.09900783091514374 0.03696691094066 0.0
0.0598362226494459 0.03986863522082124 0.0
0.1632131918140707 0.03814944431687092 0.0
0.2827645621017416 0.06158713707032377 0.0
0.213444335781579 0.02744368869448837 0.0
0.2008449659808188 0.05241197172304369 0.0
0.1890175060289011 0.01328873530160448 0.0
0.1108648893955322 0.01311188342798764 0.0
0.2414527822859808 0.02287692373702804 0.0
0.1240737847077948 0.03810764478540474 0.0
0.03073153345143496 0.0751446884920764 0.0
0.01404088507442811 0.01270032685722104 0.0
0.2880147251471561 0.08674442823339398 0.0
0.286389897842561 0.01274096323690219 0.0
0.01330792307873302 0.08773584022241472 0.0
0.2804180019139955 0.05064476705952693 0.0
0.05254329601434968 0.0228830828315029 0.0
0.2131759970503818 0.07679229573537953 0.0
0.2787769553426474 0.03897604786685069 0.0
POLYGONS 169 845
4 143 180 72 138
4 135 70 164 161
4 169 69 170 120
4 164 70 169 120
4 161 83 174 135
4 158 125 175 65
4 128 181 117 165
4 123 137 72 180
4 113 130 112 110
4 162 80 176 122
4 83 9 49 174
4 45 8 122 176
4 172 148 185 102
4 139 73 178 173
4 150 149 46 47
4 75 163 151 74
4 199 73 14 136
4 147 151 99 146
4 47 48 74 150
4 179 132 182 101
4 88 142 172 102
4 159 173 171 78
4 135 51 52 70
4 127 25 26 71
4 51 135 174 50
4 43 44 176 80
4 80 129 42 43
4 137 39 40 72
4 139 13 14 73
4 14 15 66 136
4 181 134 116 117
4 81 128 28 29
4 134 119 118 116
4 179 133 66 132
4 193 155 175 100
4 128 68 27 28
4 102 3 87 88
4 129 80 162 200
4 115 116 118 114
4 184 103 199 133
4 111 109 126 144
4 79 131 16 17
4 162 124 188 112
4 149 148 172 85
4 71 26 27 145
4 147 150 74 151
4 98 97 121 100
4 72 40 41 138
4 21 76 147 146
4 149 85 8 46
4 21 146 99 20
4 131 66 15 16
4 129 67 41 42
4 150 147 148 149
4 98 96 95 97
4 164 120 95 93
4 111 114 143 113
4 113 110 109 111
4 114 111 144 115
4 48 9 75 74
4 121 69 54 168
4 163 75 84 89
4 54 69 169 53
4 95 94 92 93
4 131 79 156 182
4 110 108 107 109
4 106 88 87 105
4 89 84 91 90
4 9 83 84 75
4 93 92 90 91
4 144 126 145 191
4 85 86 122 8
4 69 121 97 170
4 98 100 175 125
4 145 126 187 71
4 86 124 162 122
4 60 61 78 158
4 35 160 64 34
4 59 60 158 65
4 110 112 188 108
4 61 62 159 78
4 83 161 91 84
4 35 36 157 77
4 102 185 22 3
4 147 76 185 148
4 116 115 165 117
4 175 166 59 65
4 34 64 167 33
4 98 103 184 96
4 82 168 54 55
4 98 125 171 104
4 141 89 90 183
4 13 139 194 12
4 29 30 196 81
4 55 56 197 82
4 59 166 154 58
4 141 192 163 89
4 114 118 180 143
4 41 67 177 138
4 33 167 152 32
4 109 107 187 126
4 39 137 195 38
4 70 52 53 169
4 173 159 194 139
4 120 170 97 95
4 24 189 23 4
4 18 1 19 190
4 153 81 196 152
4 155 82 197 154
4 113 177 67 130
4 154 166 175 155
4 93 91 161 164
4 17 18 190 79
4 156 79 190 140
4 128 81 153 181
4 181 153 201 134
4 25 127 189 24
4 142 86 85 172
4 88 106 188 142
4 12 194 63 0
4 38 195 37 6
4 56 11 57 197
4 30 5 31 196
4 140 2 192 141
4 20 99 192 2
4 71 187 105 127
4 125 158 78 171
4 66 131 182 132
4 98 104 178 103
4 86 142 188 124
4 138 177 113 143
4 105 87 189 127
4 178 104 171 173
4 140 141 183 156
4 101 92 94 179
4 119 123 180 118
4 67 129 200 130
4 133 179 94 184
4 92 101 183 90
4 95 96 184 94
4 21 22 185 76
4 182 156 183 101
4 66 133 199 136
4 130 200 162 112
4 27 68 191 145
4 107 108 188 106
4 195 137 77 157
4 106 105 187 107
4 3 23 189 87
4 2 140 190 19
4 115 144 191 165
4 100 121 168 193
4 119 134 201 198
4 168 82 155 193
4 35 77 186 160
4 62 63 194 159
4 151 163 192 99
4 36 37 195 157
4 32 152 196 31
4 58 154 197 57
4 128 165 191 68
4 186 198 64 160
4 198 201 167 64
4 123 119 198 186
4 137 123 186 77
4 152 167 201 153
4 73 199 103 178
4 44 7 45 176
4 10 50 174 49
CELL_DATA 169
SCALARS Von_mises double 1
LOOKUP_TABLE default
10307480.714981051 10635366.71183332 10367331.926580196 10350338.356834607 10829326.881149482 9220972.222574318 10279734.234969389 10138362.1822207 13076510.372496702 11217036.730212014 11091115.930863544 11105283.999513533 18104085.620246354 9989933.036829581 22526393.900598314 17646885.737651743 9663568.838062445 20997343.41903139 22525469.43375858 12449740.560920082 16783924.880238112 9423328.751666648 6736617.426753472 6728243.817988035 4340589.865444038 4310780.378996334 6741537.780162679 9842061.804127641 9531252.754651982 9075089.044717226 10442126.248198412 9827241.606548754 10524885.62117779 11131372.499661766 9852115.563370265 9403093.960141825 16372577.74734527 10605400.6258228 10928053.127158629 10958781.846116336 12223823.680638794 6558262.683495511 15091045.316520443 18062942.59807492 8384682.082405403 20652195.034827914 10560070.355512064 9521525.225682449 22250598.180964924 24802567.03085077 22636149.60581759 8187640.853600535 8339817.031674775 20853503.09025874 11482487.709803091 12404331.894063583 11575852.534800937 12904059.472469037 11566535.193939833 24350090.285960484 9753503.488004759 16682530.470395153 9034785.621489713 13411393.959955813 10407315.777331455 14037274.914831987 14933310.485639727 16275936.773399565 16070648.534182426 15026576.07810344 10935561.920344425 16268370.206875434 10474607.999268703 10015888.882606607 10940627.904666472 14826995.790614262 8558518.03793504 10053385.471061451 8523231.8702361 15141870.151123522 8718036.646905541 14806892.251924708 10019945.992164714 25174758.97619709 21161488.551052254 10701261.113381546 8816371.347845346 10054094.20442348 11214639.874932162 9507014.434353841 10054558.150554027 16288049.52939124 9816483.06268677 9979061.182456983 9804248.258011881 8698274.757355405 16736811.596540662 10810375.972380191 9528648.60179154 10030877.603010893 12988543.78593565 9985960.601096895 8194333.618950421 9831607.768785728 11292478.156098166 271114.11906754127 264617.357550982 10005743.406523025 9850121.306592224 11179678.676178614 9368055.231489016 13586067.291957287 4067881.924629289 10532788.67421572 10017971.63054031 10235062.740335891 4183645.9066605647 16744248.880987456 16509638.001598336 10567279.843517847 10005212.013786005 10580148.759109523 10001082.72554071 16278262.156371795 25084239.792491525 10828640.25577149 9291407.291912489 10417140.676630115 10534295.079199202 16303818.430775385 10878230.102037396 10784032.931850517 9965236.998536848 14713546.037584746 13448798.253002083 10433945.023982726 10613572.25653809 12013693.963294247 15001170.32164258 12225294.650455583 22626718.37222486 13457446.578519307 10028010.346978499 12749566.056226265 9513919.741098017 15004086.521189544 9989430.806165705 13962368.326342022 10867696.977816893 10797466.046001988 10889823.218263315 10091813.417461002 10283246.115857901 9931798.911397388 10069431.401637401 9134635.387178201 17861380.049852524 9986063.879819134 9999404.839895358 9119605.420641122 10087128.184104448 10124490.289498208 10135898.712998161 10234737.989678064 10104393.784470098 10093079.565312963 10264584.330871271 286468.94366905943 329494.4252473848
SCALARS Stress double 1
LOOKUP_TABLE default
9991065.112299196 -529231.6848519199 533885.8218775474
9267488.244062653 -919291.7267560499 -2439949.7393645206
9880003.628365831 -667171.3126005174 -971309.6021652468
9521666.360004721 -879831.8594696234 -1561602.2018006674
8854311.422401033 -163278.98960292034 -3530963.3663161667
9823750.008753797 1361648.4079887047 -119263.94805553829
10065653.598247606 -376951.59849081177 -373807.820663541
9969299.325533597 -310393.49537532765 263760.5667593734
11890790.047093626 -1814602.6671102776 1256236.8944543356
9203888.695997009 -91684.41584437463 3663244.7678675093
7977231.718995594 3301967.648675811 -4993802.739480139
7872447.477246957 3557408.8720883853 5056423.638806197
19588212.45227411 3863432.6596347727 -1266422.3737537346
10027675.27643877 127977.47243090793 412887.7706368753
22840295.52265302 723945.8850744013 768193.3167679817
19135916.27791873 3716127.05877607 -918546.0249947807
9556828.239470283 -178621.88960619734 322816.86811170244
22167338.96803923 2855924.982578799 1244918.120840122
22837162.71235168 749774.4878955449 -898393.5024452932
11172968.570068613 -1578433.1674221396 1828804.5214381546
17842107.898783386 2424143.0498594884 -494864.4410826696
9923765.904785236 1221605.0459087258 562316.2350262621
6217167.870422586 -257423.35028412438 -1298990.2567852652
6180889.516298939 -219332.80054303323 -1373813.5459065668
3481008.19729618 394377.94974723057 -1626919.5041558791
3413846.5645858753 449938.1247063913 1659523.477251408
6180984.182571452 -219042.2693107791 1395455.703165691
9799269.51366849 -77863.09240384302 154308.63657392966
9508029.514639119 -38493.74525688738 157768.17101578318
8965390.253869446 -153180.50812769952 440541.88701652543
10174222.408142436 -505407.97916434467 -204636.7193310527
9789632.861646235 -67587.41530399368 -154425.80425337882
10236775.86400189 -554088.85827474 -29093.729564557947
10358788.952594945 -1015108.8336745828 1298358.0715233108
10128925.145716999 653650.6983458989 -469956.1064637325
9296658.915060317 -162872.54890687577 -387130.91639396094
16699589.693293657 2538700.0131642795 -2894549.8778375518
9033413.156821828 -778013.6263846098 2783196.3304057084
10475304.771484796 -853959.5048615637 -72116.06994933389
10474922.676885508 -813966.3117861795 627725.8238450944
11312410.186013665 -1521567.0825736176 -800725.4644673918
6031043.117766999 -241672.51367548242 1306571.261373686
13871097.258323755 -1672556.8666548377 1763959.95379299
19570817.72814517 3806308.8471506373 1042045.8047805917
8114788.39682807 -238842.84446061336 -905151.5251548202
21913804.259335753 2881561.4204685795 -616689.9138567825
10383750.475357931 -303632.10526180774 -386341.60453183955
9392357.063370178 -196725.45257309018 430757.0157129894
22737171.066823598 1007875.8183115408 59448.909960904515
25434568.485784378 4059399.141723667 4282538.240781507
22874836.456208486 632954.1099743003 1035248.2670491429
7957195.300281231 -219723.5088902786 800800.5178296474
8074561.018562262 -223844.04519359424 912225.1040178827
22049014.63220527 2692549.461818125 525288.7337632892
10991172.503834315 -916471.2219487334 -207073.4176059428
11394046.801563453 -1527703.603815457 -1197572.901046594
10849096.071162308 -1300874.9217769005 404921.3014551727
11960213.093039703 -1710209.200560888 172019.0454873657
10915135.948417261 -1186642.5406139838 -307711.1459612097
25069924.331316672 4368406.051118053 -4276229.985981968
9674040.335082943 -128934.88506616394 -305411.4178137012
17554914.84634439 1951422.7707928615 -439999.0050660651
8930742.002158767 -158448.59553690904 -378166.2034883232
12299268.121207088 -1988623.5286765762 -245121.82118158348
8936668.57717943 -799589.4759804773 2624447.0500792586
12869737.636391046 -2059026.324470856 -474770.8983656341
13734382.049388684 -658263.4740308523 -2880761.4120348203
15730653.511726033 -945619.7534228058 -749053.7436704932
16285669.112197567 2007402.5341456828 -2689792.705099708
13856072.454686478 -2051246.8110148336 -626473.4221402961
10228806.75251927 -966232.8163792469 -1174877.6278360947
16676821.237908758 2719313.3082140116 2857641.197999333
10126781.459862443 -567228.5832310346 -605464.5149876957
10224476.38605963 443865.9375697403 -199493.16308668503
9894170.28415401 -1030378.8730915377 -1874949.660377996
13746016.974431753 -507649.0686266338 2807784.4897269392
9464725.93014071 2303036.748853916 231536.4919795182
10008144.233823294 -89846.2114998991 10680.815583356572
9466293.3911129 2417597.4397361604 -158829.29275134462
13971955.286152324 -2066024.835889346 555527.3487440775
9545928.377239063 2257733.5828990084 666887.4316057846
13566837.979323037 -972227.2697958619 -2648879.6178995627
9998478.67802806 -42574.77925601756 27362.848744461102
25795230.428595025 4231593.565471064 -4458068.477246292
22278744.64120376 2649618.394261207 -1076387.3025890489
10324360.916697998 -684496.6142038926 -360108.95220545307
9584205.855510391 1913344.6627475016 -427552.4077656015
10005984.68756391 -95500.97481796685 -11239.451220323095
10817934.608148105 -744328.4803698829 211594.4422211295
9495934.163024195 -13692.802370189525 -163650.42404559447
10249077.412186613 407987.2436388935 147863.73698574852
15758986.856178502 -854176.0056062066 959917.6431567426
9839209.867433364 66945.18166055372 262992.3568231688
9960843.27967119 -36012.66698834246 -32913.00103579925
9824552.853470001 63805.94894471119 -273397.66687364783
9553337.246538341 2402166.5588174546 -723886.3379445234
17617537.98090438 2002057.5220161614 579168.3756626162
10379145.389154937 -793730.6795428714 299619.2809455414
9257741.762886388 -321505.48581115564 818449.9756115078
10000351.263878338 -60595.255614693684 -24728.253463235702
11765680.712639999 -1747103.1531474527 -1490279.5876010878
9962374.5365163 -46501.529060596105 41128.577266031585
8001672.814930106 -179244.77325055792 -742506.7684079149
10154670.051587068 885994.9985538741 764893.7187298295
10576151.95070374 -1176886.0564284704 -781683.2841826993
239964.1026557094 280632.75424450036 38760.54388867071
247138.93706026426 256441.46225624363 -46758.7373013661
9957628.520315524 -93476.45398617363 -83653.48555666818
10196584.174469285 982808.8914465985 -838638.0227269791
10353163.397999909 -1055352.5233956792 1385305.8496319118
9885665.950198904 1318657.4023336065 -666087.2762645412
12210176.836713258 -1703280.0570793406 -1982783.6010310214
3201750.509985615 436239.5582920881 1581442.6220544393
8449951.257975865 62206.84058894262 3654209.2657368965
9890810.89286749 -232483.64758037942 -243663.04024917647
10072533.550294273 -311833.9639032622 -144197.42511316598
3297916.570645461 428873.001834271 -1618342.2272116556
17850652.953646366 2542840.7092693183 465255.4358555049
16145965.014617976 -614974.4060953881 -723051.8480022129
11049649.106147926 1885131.5153875789 1510957.62745453
10003854.795699293 -2701.252733162302 -6491.802438069644
11071606.704092052 1932980.8813877404 -1530126.547297582
10000871.205002239 -409.0197274885697 6833.816742599041
16444041.653534312 2195449.1856967937 2935834.5581926093
25731113.654341493 4444536.554178714 4536439.356646467
9303406.54704276 -876519.718954611 -2694634.811355464
9876275.305540044 1327626.935795542 215136.69584858406
9419520.608957635 -910359.6631053684 1860604.2969718222
10403363.740579518 -229073.46943860664 319262.90970967937
16014326.469954917 -391922.5111796001 987566.8479767955
10298536.940178575 -869114.3058416301 925573.9812108645
8676496.499980604 92736.46575401677 -3733175.6959062596
10159644.536420565 457486.33200817765 418798.32062984275
13402025.2050711 -774577.0498378332 2937872.623256101
12274661.129603257 -1944160.6678338468 923615.0933231479
10172568.890069773 -496620.4395051781 170795.63446905572
9487212.400247589 -996259.1261373906 2016305.427887098
11147252.78943402 -1446406.9950813514 785714.1732526685
13804170.604999166 -1985632.682819947 1020985.7105457175
11422405.953964671 -1470617.16392357 92683.01041813474
22864957.8946777 606743.8334058764 -942888.9816053964
11982212.141879208 -1519483.0052440073 2381446.638961583
9569488.252944237 -650822.2417091191 882096.1226488764
11381811.40095097 -1525191.0087236676 2107143.392561675
9301213.860344509 -263665.5066117039 -702415.0720244651
13906081.927612282 -1915126.8407728157 -693752.1632572423
9948258.91519592 -80559.39662396391 65718.68163043959
12539577.934525385 -1552469.4738064639 -2297044.5562021877
7504711.682149896 3616447.17246724 -5028182.022736112
7441758.529853253 3555624.4723120527 5000771.152385766
10392935.49107507 -826563.4619487403 -658663.7248848012
10092491.230769418 42176.16573483246 -369775.86164165277
10105682.442373246 -346088.95925864164 -32095.515863987148
10019295.766176634 236962.51284612325 -436802.10451139003
10009586.247340776 -118417.755648851 27667.10496331403
9790649.135487812 2127372.5326110534 1138331.7204314063
19332768.98954103 3846517.5337919905 1270312.06658846
9985120.82499353 -1857.6307733757333 9691.982879814836
9990138.385823645 -18435.3689821239 -15496.602434089553
9785062.65321228 2187482.214645111 -1160362.5847981696
9815818.652920304 -427231.5068315095 -584153.3535053461
10032977.386792 -180511.60983210153 18394.17915916293
10037886.288656944 -193060.56833417463 -26389.14766390098
10077617.128491264 -305814.9504044734 73225.59357482525
10014073.765494267 -175337.17908357765 100859.3068450744
10008084.086021034 -166156.26201000286 -77447.38827198891
10078519.455387311 -306785.8728023704 446867.65882815846
276154.3328664517 295770.32644005795 -685.8822153821638
363587.3520724802 261373.4926130908 -32077.02772177737
SCALARS Strain double 1
LOOKUP_TABLE default
4.8797281816128716e-05 -1.6954573166065764e-05 6.673572773469343e-06
4.5881133471583974e-05 -1.7786241346032913e-05 -3.0499371742056507e-05
4.846228376031725e-05 -1.745755962072244e-05 -1.2141370027065586e-05
4.704623037425774e-05 -1.796313349745692e-05 -1.9520027522508347e-05
4.2804303458086105e-05 -1.3555636616938608e-05 -4.413704207895207e-05
4.526565137671724e-05 -7.62248362806459e-06 -1.4907993506942286e-06
4.8936245566321394e-05 -1.633003691329372e-05 -4.6725977582942614e-06
4.837700660647209e-05 -1.5871073524208688e-05 3.297007084492168e-06
5.97844752270515e-05 -2.5874229236722913e-05 1.570296118067919e-05
4.438170202283808e-05 -1.3715629926170567e-05 4.579055959834386e-05
3.358962223265794e-05 4.369221793159292e-06 -6.242253424350174e-05
3.27174269981752e-05 5.748435715934126e-06 6.320529548507745e-05
8.860183968453692e-05 -9.67803401945894e-06 -1.583027967192168e-05
4.802539439764184e-05 -1.3847716877407323e-05 5.161097132960942e-06
0.00010876496037082069 -2.946222486404569e-05 9.602416459599772e-06
8.66397988475284e-05 -9.733883772113219e-06 -1.1481825312434756e-05
4.620391733823144e-05 -1.4642645968496546e-05 4.0352108513962806e-06
0.00010245462246762304 -1.824171494150466e-05 1.5561476510501527e-05
0.00010871264599030298 -2.933353041254788e-05 -1.1229918780566165e-05
5.5992781347573355e-05 -2.3703479511743863e-05 2.286005651797693e-05
8.228300472993049e-05 -1.407927557584388e-05 -6.18580551353337e-06
4.5948482649099135e-05 -8.440022718879067e-06 7.028952937828278e-06
3.0261513824556847e-05 -1.0204681304860097e-05 -1.6237378209815815e-05
3.0032160367605043e-05 -9.969229112657283e-06 -1.717266932383208e-05
1.6166801982557746e-05 -3.12463706462319e-06 -2.0336493801948485e-05
1.57637746498748e-05 -2.760653099371978e-06 2.07440434656426e-05
3.003219645848407e-05 -9.967968865779878e-06 1.7443196289571144e-05
4.722417519898867e-05 -1.4507903588963415e-05 1.9288579571741205e-06
4.576720018373167e-05 -1.3898570190618384e-05 1.9721021376972895e-06
4.33237711841719e-05 -1.3667296078310255e-05 5.506773587706568e-06
4.964348462447953e-05 -1.7104205296187864e-05 -2.5579589916381583e-06
4.716302445306458e-05 -1.4444602277874345e-05 -1.9303225531672356e-06
5.001443519944382e-05 -1.7428469314785134e-05 -3.636716195569743e-07
5.126596924373711e-05 -1.9820891920447435e-05 1.6229475894041385e-05
4.7753990077948203e-05 -1.1466475218121153e-05 -5.874451330796657e-06
4.493038788332875e-05 -1.4191683766466206e-05 -4.839136454924511e-06
7.662490235261719e-05 -1.188065814819143e-05 -3.61818734729694e-05
4.455200598431351e-05 -1.6769411410726723e-05 3.478995413007136e-05
5.159371453338108e-05 -1.9214187193783667e-05 -9.014508743666735e-07
5.15341950501027e-05 -1.9021361129095347e-05 7.846572798063681e-06
5.6581155340316124e-05 -2.3631202588354415e-05 -1.0009068305842397e-05
2.9343965730142516e-05 -9.860506966372988e-06 1.6332140767171074e-05
6.910030922269331e-05 -2.8047529058422906e-05 2.2049499422412376e-05
8.860060131730759e-05 -9.927579188908236e-06 1.3025572559757396e-05
3.93578906257993e-05 -1.2852304632254973e-05 -1.1314394064435253e-05
0.00010119872996728451 -1.775278777563532e-05 -7.70862392320978e-06
5.035980820642536e-05 -1.643633292244802e-05 -4.829270056647995e-06
4.543930143818319e-05 -1.4492464286462225e-05 5.384462696412367e-06
0.00010785965539101027 -2.7948439912190084e-05 7.431113745113065e-07
0.00011642667665032345 -1.7168131750055987e-05 5.353172800976885e-05
0.00010906226068853942 -2.994950397542426e-05 1.2940603338114288e-05
3.8572655543020755e-05 -1.2533087014301194e-05 1.001000647287059e-05
3.9142856885193944e-05 -1.272217476328016e-05 1.1402813800223536e-05
0.00010212139323874921 -1.8856514076170468e-05 6.566109172041116e-06
5.416400899239872e-05 -2.0258764293745325e-05 -2.588417720074285e-06
5.698248982071198e-05 -2.377845021290622e-05 -1.4969661263082425e-05
5.403537763315086e-05 -2.1901941072719195e-05 5.061516268189659e-06
5.996767237119216e-05 -2.5472466963811537e-05 2.150238068592071e-06
5.418811880096854e-05 -2.144799675547674e-05 -3.846389324515122e-06
0.00011422789671144836 -1.5156592539793023e-05 -5.34528748247746e-05
4.6695773079821126e-05 -1.4572822046110806e-05 -3.8176427226712646e-06
8.15840769957045e-05 -1.5937748476492577e-05 -5.499987563325814e-06
4.316479125394155e-05 -1.364264998165644e-05 -4.72707754360404e-06
6.199930374908684e-05 -2.730001906268607e-05 -3.0640227647697935e-06
4.411800682679602e-05 -1.6733606005453393e-05 3.280558812599074e-05
6.484348814294377e-05 -2.8461286612443123e-05 -5.9346362295704275e-06
6.698010140191318e-05 -2.2973933119458934e-05 -3.600951765043525e-05
7.699201652765806e-05 -2.7234691379522196e-05 -9.363171795881166e-06
7.54011939997782e-05 -1.3837972113046095e-05 -3.362240881374635e-05
6.957426200957178e-05 -2.9846483401061427e-05 -7.830917776753702e-06
5.057056056458195e-05 -1.939843674103379e-05 -1.4685970347951188e-05
7.62549386800219e-05 -1.097948588057027e-05 3.5720514974991656e-05
4.950456747515266e-05 -1.733299529418157e-05 -7.568306437346198e-06
4.851594521533033e-05 -1.2612870087731485e-05 -2.493664538583563e-06
4.9054249740776306e-05 -1.922418249200837e-05 -2.3436870754724954e-05
6.681880622605647e-05 -2.226660654305846e-05 3.509730612158673e-05
4.2181802430214114e-05 -2.5787549528283523e-06 2.894206149743978e-06
4.824566392919839e-05 -1.4866776354071575e-05 1.3351019479195717e-07
4.2024106534577183e-05 -2.030243161527452e-06 -1.9853661593918076e-06
7.015270546595735e-05 -3.0084670296803097e-05 6.944091859300969e-06
4.263753991523732e-05 -2.9136775493880295e-06 8.336092895072307e-06
6.66274334627971e-05 -2.4241724344196023e-05 -3.3110995223744534e-05
4.813101496060033e-05 -1.4625569147425171e-05 3.4203560930576377e-07
0.0001179122709565082 -1.6860459438016553e-05 -5.572585596557864e-05
0.00010328778424483368 -1.9394254798557322e-05 -1.3454841282363113e-05
5.062360529307291e-05 -1.8181754275063904e-05 -4.501361902568163e-06
4.331828104176029e-05 -4.624601413007766e-06 -5.344405097070019e-06
4.824343740389087e-05 -1.4890847985995866e-05 -1.404931402540387e-07
5.308285169355323e-05 -1.9181292609684212e-05 2.6449305277641188e-06
4.567327886411178e-05 -1.3761889669603115e-05 -2.045630300569931e-06
4.8685967495648774e-05 -1.2820846057774476e-05 1.8482967123218565e-06
7.699634450894406e-05 -2.6835923377210373e-05 1.199897053945928e-05
4.7207338042957684e-05 -1.3869316243122383e-05 3.2874044602896096e-06
4.794061096042161e-05 -1.453973870620048e-05 -4.114125129474907e-07
4.7141399369166286e-05 -1.3863268784116774e-05 -3.4174708359205974e-06
4.2464842686986094e-05 -2.229974111269461e-06 -9.048579224306545e-06
8.181211886682468e-05 -1.57846340012267e-05 7.2396046957827015e-06
5.104454131258557e-05 -1.8785934116775735e-05 3.745241011819267e-06
4.497208369533526e-05 -1.4898211609024381e-05 1.0230624695143848e-05
4.816600884885937e-05 -1.4714906897972094e-05 -3.091031682904462e-07
5.908563297396267e-05 -2.5369266187208913e-05 -1.8628494845013597e-05
4.79631009386273e-05 -1.4592374471228298e-05 5.141072158253949e-07
3.8728106956275345e-05 -1.2402627969853795e-05 -9.281334605098935e-06
4.7542651692408195e-05 -1.0386567389049261e-05 9.56117148412287e-06
5.254431619053981e-05 -2.0912171354036506e-05 -9.771041052283741e-06
7.489147902998043e-07 1.0030938627297478e-06 4.845067986083839e-07
8.18300472997073e-07 8.764412554719439e-07 -5.844842162670762e-07
4.8008035848612394e-05 -1.4811370240773227e-05 -1.0456685694583522e-06
4.7604526476131286e-05 -9.981569042760515e-06 -1.048297528408724e-05
5.129696709143564e-05 -2.0006257417286788e-05 1.7316323120398898e-05
4.5625330430282804e-05 -7.918472993875313e-06 -8.326090953306765e-06
6.115942718190895e-05 -2.57996784042948e-05 -2.4784795012887772e-05
1.4763839627394174e-05 -2.520603820690367e-06 1.9768032775680493e-05
4.0535044258649924e-05 -1.188835835001835e-05 4.5677615821711215e-05
4.7887288399719264e-05 -1.538330247807994e-05 -3.0457880031147055e-06
4.8875402593582944e-05 -1.6026894370151654e-05 -1.8024678139145753e-06
1.5236801298534518e-05 -2.69472100653542e-06 -2.0229277840145692e-05
8.215288817723832e-05 -1.3520938350118228e-05 5.815692948193811e-06
7.85118141175317e-05 -2.6244057261926833e-05 -9.038148100027663e-06
5.0404373324671416e-05 -6.873861617580767e-06 1.888697034318162e-05
4.80993517861502e-05 -1.4441623516552647e-05 -8.114753047587056e-08
5.0440925190748705e-05 -6.675486201153246e-06 -1.9126581841219772e-05
4.808170149481003e-05 -1.4426299909750772e-05 8.542270928248802e-08
7.589137931646768e-05 -1.3162323607516826e-05 3.669793197740762e-05
0.00011729688792349943 -1.5744218952517958e-05 5.670549195808084e-05
4.599212722465934e-05 -1.7632411937824224e-05 -3.36829351419433e-05
4.556724627308358e-05 -7.861806037819575e-06 2.689208698107301e-06
4.6599175518698295e-05 -1.7962576181695473e-05 2.3257553712147772e-05
5.0346566256784134e-05 -1.6106166305829142e-05 3.990786371370992e-06
7.755722703513845e-05 -2.4981829096952283e-05 1.2344585599709944e-05
5.076572707659165e-05 -1.9032093211034628e-05 1.1569674765135808e-05
4.158017096276155e-05 -1.206832925115464e-05 -4.666469619882825e-05
4.818460883085631e-05 -1.2453879946721116e-05 5.234979007873036e-06
6.554999192318484e-05 -2.3053772169995975e-05 3.672340779070126e-05
6.181687177862216e-05 -2.705076445535973e-05 1.1545188666539348e-05
4.962286068231406e-05 -1.7059572627529375e-05 2.134945430863197e-06
4.704851027927311e-05 -1.847318676063301e-05 2.5203817848588727e-05
5.567872542287704e-05 -2.3031648230344026e-05 9.821427165658356e-06
6.923009812425553e-05 -2.945617242461393e-05 1.276232138182147e-05
5.7036495688181454e-05 -2.3544898798620054e-05 1.1585376302266842e-06
0.00010905257088776894 -3.0061266995179972e-05 -1.1786112270067455e-05
5.979835117044429e-05 -2.458724349907582e-05 2.9768082987019793e-05
4.694584098777391e-05 -1.6931099603809573e-05 1.1026201533110957e-05
5.692004184407726e-05 -2.3748723216389225e-05 2.6339292407020943e-05
4.509766111696164e-05 -1.4682834926514695e-05 -8.780188400305812e-06
6.961836528771216e-05 -2.926418951469471e-05 -8.671902040715528e-06
4.794435929895726e-05 -1.4735755149917021e-05 8.214835203804947e-07
6.252557104166982e-05 -2.554972526040423e-05 -2.871305695252735e-05
3.0864315050046755e-05 6.562661864530151e-06 -6.285227528420139e-05
3.0649380712305944e-05 6.361042852673451e-06 6.250963940482207e-05
5.1158194854133134e-05 -1.896367360226568e-05 -8.233296561060015e-06
4.846076144735081e-05 -1.435370770911535e-05 -4.622198270520659e-06
4.908417851034056e-05 -1.623939274985873e-05 -4.011939482998394e-07
4.782791832847498e-05 -1.3311664504840705e-05 -5.460026306392377e-06
4.829380564440112e-05 -1.500621937428406e-05 3.4583881204142543e-07
4.400210276781008e-05 -3.893376000169664e-06 1.4229146505392579e-05
8.739814292982422e-05 -9.390928668607305e-06 1.587890083235575e-05
4.800806785685358e-05 -1.4410547491689594e-05 1.2114978599768544e-07
4.805610094479943e-05 -1.4497485022736625e-05 -1.937075304261194e-07
4.3888548023167045e-05 -3.5963297178777518e-06 -1.4504532309977119e-05
4.7807635120046905e-05 -1.6211428378401925e-05 -7.301916918816824e-06
4.8495821489142453e-05 -1.5338484739758178e-05 2.2992723948953662e-07
4.853752143825577e-05 -1.5405896417938745e-05 -3.298643457987623e-07
4.889116160390677e-05 -1.60052888891916e-05 9.153199196853157e-07
4.839747557316991e-05 -1.5286342830441623e-05 1.26074133556343e-06
4.8355437329923245e-05 -1.5233564845270735e-05 -9.680923533998612e-07
4.889690008282703e-05 -1.601125821835848e-05 5.585845735351981e-06
9.010732448770879e-07 1.023673204712127e-06 -8.573527692277185e-09
1.3710351167718895e-06 7.321984951507058e-07 -4.0096284652221716e-07
POINT_DATA 202
VECTORS Displacement float
0.0 0.0 0
3.9098241039726785e-06 -1.1659636181188236e-07 0
6.6489688300906495e-06 1.0380309951168744e-07 0
1.3016177599115067e-05 1.1448909369822273e-07 0
1.5766286096623122e-05 -1.0547450957153654e-07 0
1.9712702662056446e-05 7.676713056508426e-07 0
1.969623875046591e-05 -6.802004299788569e-07 0
1.5743196490936208e-05 1.4745030183468857e-07 0
1.300186474535115e-05 -6.756110975607875e-08 0
6.6449688175525964e-06 -1.0202764633186681e-07 0
3.913589646575195e-06 1.1764113658649734e-07 0
0.0 0.0 0
8.630817098522348e-07 4.754239019363015e-07 0
1.575349637496094e-06 6.742300127757626e-07 0
2.2596751122572757e-06 8.062958025176056e-07 0
2.912111381220417e-06 9.078317552721235e-07 0
3.486932156578492e-06 9.97585457051888e-07 0
3.8640839282368255e-06 1.0137810521400247e-06 0
3.938616740938477e-06 7.008023667166792e-07 0
4.707455764141084e-06 -1.467171168382848e-07 0
8.459055784206603e-06 5.074420664875099e-07 0
9.835899928739056e-06 6.138545572144593e-07 0
1.1211638480238537e-05 5.203178664327648e-07 0
1.4964320506814198e-05 -1.3620591639516722e-07 0
1.5738810187644476e-05 7.15569015882137e-07 0
1.5818617016492966e-05 1.031884550177543e-06 0
1.6205241021073496e-05 1.0195019424978904e-06 0
1.6800988779567702e-05 9.454591561198992e-07 0
1.7480459943838995e-05 8.685829132759467e-07 0
1.821018071249574e-05 8.174086361552897e-07 0
1.8960491981449816e-05 7.865261684596103e-07 0
1.972728649043278e-05 5.881347506634816e-07 0
1.9737266851839268e-05 4.0914021610670043e-07 0
1.9740684307997126e-05 2.2781506528862926e-07 0
1.974002153089192e-05 4.39208402990865e-08 0
1.9736731753511208e-05 -1.3978462252826677e-07 0
1.972919367546511e-05 -3.2239908618154806e-07 0
1.9715305062417707e-05 -5.008230267029512e-07 0
1.8944132002715613e-05 -7.046012475257278e-07 0
1.81954173838091e-05 -7.406782413747012e-07 0
1.7463631623192858e-05 -7.959268883902933e-07 0
1.6784180573485276e-05 -8.793482471422665e-07 0
1.618387592645916e-05 -9.56688954539426e-07 0
1.5797971166354233e-05 -9.771441737927807e-07 0
1.572066209803571e-05 -6.654166185043378e-07 0
1.4947963508960748e-05 1.7394638728974683e-07 0
1.1209288156909247e-05 -4.76731249093133e-07 0
9.819091818765046e-06 -5.678903137998161e-07 0
8.424348018198155e-06 -4.816817211585548e-07 0
4.711677727283437e-06 1.3862825419298612e-07 0
3.934704731602374e-06 -6.949316731762231e-07 0
3.857920920724625e-06 -1.012838951951652e-06 0
3.4848051848776763e-06 -1.0008965660824382e-06 0
2.920440549953155e-06 -9.046298790407277e-07 0
2.2574243643451444e-06 -8.060949013641721e-07 0
1.5735932272177543e-06 -6.748278752617984e-07 0
8.633974532525119e-07 -4.763689160962306e-07 0
0.0 0.0 0
0.0 0.0 0
0.0 0.0 0
0.0 0.0 0
0.0 0.0 0
0.0 0.0 0
0.0 0.0 0
1.9268443371531176e-05 5.419175356992324e-08 0
4.5504992173005957e-07 -3.5645187828117764e-08 0
3.184155535045423e-06 7.329588871503493e-07 0
1.6309234807592433e-05 -7.032952431241586e-07 0
1.7124924427001457e-05 7.158210802362436e-07 0
2.53208546295351e-06 -6.086376710243332e-07 0
3.668725981476785e-06 -8.57211229953702e-07 0
1.5903395933455967e-05 8.840496735440772e-07 0
1.7675946761464917e-05 -5.390609451701769e-07 0
1.8957533275917083e-06 5.188279150406174e-07 0
8.395973968950658e-06 -1.1636228840017616e-07 0
7.278852819835076e-06 -7.871683390511546e-08 0
1.0358817555250408e-05 2.939260237433262e-07 0
1.9110651331895375e-05 -2.8135029320085604e-07 0
5.126536227001942e-07 7.002703971977102e-08 0
4.239653864948158e-06 8.898520583293475e-07 0
1.5405659428560604e-05 -8.465563820677406e-07 0
1.8422636853125978e-05 6.122685547307061e-07 0
1.2136959789494864e-06 -4.4388622491210737e-07 0
5.584460773502987e-06 -5.468331672881691e-07 0
6.195453667690308e-06 -2.6698645542764437e-07 0
1.2225601415355153e-05 -4.2572409316292175e-08 0
1.325422155559621e-05 -2.1972543078818053e-07 0
1.4010661235975042e-05 5.429455759320341e-07 0
1.3308144156052652e-05 2.770119472184681e-07 0
6.389185668167737e-06 1.865323092911258e-08 0
5.381377691959594e-06 3.428294832084171e-08 0
5.183786452554197e-06 -3.333289539042617e-07 0
4.433803956133138e-06 7.127393429973343e-08 0
4.244005615418809e-06 -2.885944028242386e-07 0
3.596082881472071e-06 1.4528150548169988e-07 0
3.236423645869642e-06 -1.8906009756934024e-07 0
2.7049729859512715e-06 2.5344700486055444e-08 0
2.4846386368571896e-06 -2.99261905543732e-07 0
1.9193289472835676e-06 -5.651962436740606e-09 0
8.310562521521034e-06 1.4692219533338911e-07 0
1.5405595623907394e-06 -2.3502340328932888e-07 0
4.4415742817681455e-06 4.097714453620708e-07 0
1.2290100642249542e-05 9.259038143815213e-08 0
2.2502326523011866e-06 2.807465511977489e-07 0
1.5200098618716286e-06 1.6681022841433448e-07 0
1.4763271172974052e-05 6.847047109842311e-07 0
1.4252365294939456e-05 3.668365197272079e-07 0
1.505799287721898e-05 3.4204369853283664e-07 0
1.492870676865652e-05 9.091336713441972e-08 0
1.575087719154713e-05 2.2461134135328825e-07 0
1.546287040500347e-05 -7.610463244729503e-08 0
1.6443992192028805e-05 7.24042203081612e-08 0
1.5066891843039331e-05 -3.3956537666006485e-07 0
1.628582848913978e-05 -3.038837142365307e-07 0
1.7122601472431393e-05 -2.3592280912165248e-08 0
1.7215155895930155e-05 2.400685179026396e-07 0
1.7738918878051466e-05 1.8269431110514093e-07 0
1.773824849414091e-05 3.4423195839457496e-07 0
1.7734011618713424e-05 -4.1852716116098e-08 0
1.8286791598304766e-05 -1.469008615501321e-08 0
3.2578588413456947e-06 -5.340223244137825e-07 0
2.055695772534066e-06 -4.167913107764251e-07 0
1.3953911735892491e-05 -4.848943153792439e-07 0
1.8351635273705078e-05 -2.257640442121438e-07 0
1.3996674587736211e-05 -3.0831091689013123e-07 0
1.0428877476068478e-06 4.048458486900479e-09 0
1.6043542530933456e-05 5.198835929690579e-07 0
1.542170830298728e-05 9.032746770785798e-07 0
1.7696572392740496e-05 6.140036874391237e-07 0
1.5880729837182487e-05 -8.272392719307843e-07 0
1.5761285163034117e-05 -5.36924663509453e-07 0
3.756692942497475e-06 8.727386287135722e-07 0
3.7146592742183364e-06 6.231402589441231e-07 0
3.0528825569892937e-06 4.768580333900477e-07 0
1.8222480728788793e-05 1.9171645759815872e-07 0
4.210032245057822e-06 -8.883492685209179e-07 0
2.61127697974119e-06 6.743213326972875e-07 0
1.8492724030876854e-05 -4.5948988573910846e-07 0
1.7033212024547826e-05 -5.676418977422313e-07 0
1.2962280458048295e-06 4.5335941750626046e-07 0
5.599070654852991e-06 5.434171614405167e-07 0
6.236443606228719e-06 2.902090982348721e-07 0
1.310768396283751e-05 1.5606527754620025e-08 0
1.7082907103130698e-05 -2.9870934338367284e-07 0
1.664528643475767e-05 3.6527052768790007e-07 0
1.642195871383129e-05 7.512555971771009e-07 0
9.208622131174342e-06 2.846637895708203e-07 0
9.754036512329056e-06 9.792334849037972e-08 0
1.1061871531056833e-05 3.263666049625174e-08 0
1.1107681637482482e-05 -1.3058213240042111e-07 0
9.762441520063183e-06 -2.1898833567661841e-07 0
8.451187415846915e-06 2.1890990146218352e-08 0
1.9172080084572876e-05 4.151350415099863e-07 0
1.8598018592919116e-05 4.100347944667128e-07 0
4.948349347968509e-07 -1.3868062964395185e-07 0
1.0016498464959e-06 -2.5830225051960584e-07 0
4.830409052690291e-06 6.860775310998777e-07 0
1.9320847490496148e-05 -3.6944934061551375e-07 0
4.827450940335846e-07 5.24545921805008e-09 0
5.509295193245917e-07 1.476206865411274e-07 0
1.927242825501409e-05 -7.336962918324507e-08 0
4.7531785192491e-06 -6.618454709326733e-07 0
1.4758727347036699e-05 -5.963625434552116e-07 0
7.395363548736364e-06 9.24066442193775e-09 0
3.973540975298477e-06 -6.180229785331639e-07 0
1.739576413665015e-05 4.414042378178053e-07 0
4.52851588843105e-07 -8.464882293384954e-08 0
1.922974094040919e-05 2.281709300858006e-07 0
1.699469244600754e-06 -4.914214478463382e-07 0
3.075109554383299e-06 -7.496993428322352e-07 0
2.7625502414401906e-06 -4.768111263911771e-07 0
1.071769068076741e-06 1.2959068387820053e-07 0
1.2122679590252176e-05 2.4000964837394943e-08 0
1.1272334185062424e-06 2.6387397700308793e-07 0
4.627525547076392e-06 -6.913434193352456e-07 0
8.64994207372417e-07 -1.1453271817514792e-07 0
1.5007870819347327e-05 -6.440074086754859e-07 0
1.6569570091456098e-05 -5.57868776210311e-07 0
1.681116047977382e-06 3.068048767074388e-07 0
3.697339222479165e-06 4.360983922311635e-07 0
1.772753029675653e-05 -2.800629544657023e-07 0
1.8071903839333645e-05 3.831738934446018e-07 0
4.15796054801217e-06 6.7773046082726e-07 0
5.262608484375728e-06 3.9162311986240437e-07 0
2.8737790871959776e-06 2.2568088686763716e-07 0
1.1254892858366295e-05 1.742873524878321e-07 0
1.8904708476226867e-05 -1.3849651473838034e-07 0
1.543357053459014e-05 6.442768010051228e-07 0
1.4213066543938399e-05 -4.733149443288088e-08 0
1.5046956996623206e-05 6.844985527340342e-07 0
4.6120134823239186e-06 6.726135408003603e-07 0
1.691593577392437e-05 5.857946199552521e-07 0
7.274090566339865e-06 9.022212009209924e-08 0
1.3936910866409479e-06 -3.2902222909235693e-07 0
6.309984486934008e-07 2.627114612028817e-07 0
1.9140561470839104e-05 -5.066086217055474e-07 0
1.907412285147709e-05 5.995997739026115e-07 0
5.974258632636412e-07 -2.5278806266733193e-07 0
1.87919808105944e-05 3.0313705018092655e-08 0
2.451658536793189e-06 5.114178793572027e-07 0
1.5517835071207744e-05 -6.765210116798016e-07 0
1.871385762342602e-05 2.142394084019155e-07 0