# vtk DataFile Version 2.0
Really cool data
ASCII
DATASET POLYDATA
POINTS 199 float
0.0 0.0 0.0
0.125 0.0 0.0
0.125 0.02685185185185185 0.0
0.175 0.02685185185185185 0.0
0.175 0.0 0.0
0.3 0.0 0.0
0.3 0.1 0.0
0.175 0.1 0.0
0.175 0.07314814814814816 0.0
0.125 0.07314814814814816 0.0
0.125 0.1 0.0
0.0 0.1 0.0
0.01562500001914041 0.0 0.0
0.03125000004302709 0.0 0.0
0.04687500009029187 0.0 0.0
0.06250000012942511 0.0 0.0
0.078125000069625 0.0 0.0
0.09374999998136457 0.0 0.0
0.1093749999689982 0.0 0.0
0.125 0.01342592596831292 0.0
0.1374999999728949 0.02685185185185185 0.0
0.1500000000514996 0.02685185185185185 0.0
0.1624999999674739 0.02685185185185186 0.0
0.175 0.01342592588692492 0.0
0.1906249999454511 0.0 0.0
0.2062499999464675 0.0 0.0
0.2218749999813653 0.0 0.0
0.2375000000284603 0.0 0.0
0.253125000025411 0.0 0.0
0.2687499999464675 0.0 0.0
0.2843749999108921 0.0 0.0
0.2999999999999999 0.01250000000785633 0.0
0.3 0.02500000002464271 0.0
0.3 0.03750000005532045 0.0
0.2999999999999999 0.05000000007786666 0.0
0.3 0.06250000001503192 0.0
0.2999999999999999 0.0749999999440657 0.0
0.3 0.08749999994628305 0.0
0.2843749999369807 0.1 0.0
0.2687499999742503 0.1 0.0
0.253124999894968 0.1 0.0
0.2374999998970008 0.1 0.0
0.2218749999180072 0.09999999999999999 0.0
0.2062499998726061 0.09999999999999999 0.0
0.1906249999261387 0.1 0.0
0.175 0.08657407400834431 0.0
0.1624999999105533 0.07314814814814816 0.0
0.1499999998834483 0.07314814814814816 0.0
0.1374999998590537 0.07314814814814816 0.0
0.125 0.08657407405713341 0.0
0.1093749999923767 0.1 0.0
0.09374999993596433 0.1 0.0
0.07812499987955196 0.1 0.0
0.06249999985295514 0.1 0.0
0.04687499989276568 0.1 0.0
0.03124999993257619 0.09999999999999999 0.0
0.0156249999764525 0.09999999999999999 0.0
0.0 0.08749999998398685 0.0
0.0 0.07499999993815812 0.0
0.0 0.06249999990588191 0.0
0.0 0.04999999987631621 0.0
0.0 0.03749999991857893 0.0
0.0 0.0249999999459339 0.0
0.0 0.01249999997735459 0.0
0.2907828510523551 0.04855570769201446 0.0
0.01129567621875082 0.06128262600585946 0.0
0.06559324868078853 0.01218041174799638 0.0
0.2287556556703151 0.0826705834903042 0.0
0.2436082102410456 0.01371878965999534 0.0
0.05443901349472806 0.0830389118972064 0.0
0.2128942104245296 0.01645573222867525 0.0
0.08050036318015734 0.08700527963743304 0.0
0.2567521333806467 0.09029213811804765 0.0
0.04096523664892882 0.01659067941166341 0.0
0.1367267058422696 0.0607437437187549 0.0
0.1234343946321051 0.06057104335421055 0.0
0.1499811153202781 0.03795233708528022 0.0
0.2900720856090594 0.0669141860502318 0.0
0.01241137622577739 0.03722928241099025 0.0
0.1024409832670611 0.01377186377997441 0.0
0.2034165336108405 0.08664612354052675 0.0
0.1743489358217816 0.06157504052463662 0.0
0.1868338604937738 0.06169475952058175 0.0
0.2721470110011458 0.01348217875405713 0.0
0.02538963747645801 0.0875028453092479 0.0
0.1101904369534572 0.0739490336016977 0.0
0.1093845108465191 0.0611513540339715 0.0
0.1077590365010074 0.04849625035405969 0.0
0.09392944573511637 0.04962555073533916 0.0
0.1874108067154374 0.02547300764764788 0.0
0.1872258490857542 0.03781571784233458 0.0
0.1293048144837639 0.03652966401794559 0.0
0.09501185231969989 0.061729951219299 0.0
0.07946478502420536 0.04986708279831971 0.0
0.08050522849132032 0.06202855702037877 0.0
0.1054164574478772 0.03691025753524926 0.0
0.0660863382291722 0.06276699085507295 0.0
0.06398024821917295 0.05004982260721588 0.0
0.05370745821159333 0.06656409468347815 0.0
0.04340995814144173 0.05072145706048811 0.0
0.03476422733635412 0.06675518207163297 0.0
0.17470753934461 0.03812795829214234 0.0
0.05006351228988814 0.03382582787862726 0.0
0.03459103883306496 0.03818912178121291 0.0
0.07933875316884659 0.03772034338603545 0.0
0.1992948046255044 0.02487238343015463 0.0
0.1998607289331085 0.0363789000027363 0.0
0.2115686445585014 0.03225034581948306 0.0
0.2172079229776577 0.04323298141795608 0.0
0.224119319154532 0.0541150965393977 0.0
0.2329900594755208 0.04854360719127353 0.0
0.2130966199644613 0.06197246161438757 0.0
0.2317058291495289 0.06438167404234105 0.0
0.2434974581493085 0.05519902416874211 0.0
0.2463655592857393 0.0393679220039416 0.0
0.2585227257721436 0.05580443017254484 0.0
0.259351754493139 0.04157745250262952 0.0
0.2702947718482158 0.05754154575463129 0.0
0.06792704833363372 0.0745127492323533 0.0
0.2695542795307145 0.06736535677076814 0.0
0.04477753861991818 0.07503962214201373 0.0
0.1878703062641315 0.07358732972339772 0.0
0.0249041899623606 0.05013643922250206 0.0
0.1965909128995892 0.06170084552101648 0.0
0.1871256894330883 0.04994180274249888 0.0
0.2316783727226633 0.01723237525214298 0.0
0.2371279105852455 0.02626833981637932 0.0
0.257404261047402 0.01357735006087023 0.0
0.2167940148389473 0.08632103957750296 0.0
0.2213690986802233 0.0715854293432445 0.0
0.0807649124318781 0.01285781088243522 0.0
0.09462411978052829 0.02692523551824676 0.0
0.2715504916022822 0.04444967892847945 0.0
0.09518491701928505 0.08703590096132466 0.0
0.2696014339003626 0.08485061882934612 0.0
0.248735321814346 0.08424125167911406 0.0
0.05554902660415752 0.0120243973783994 0.0
0.0659642584527375 0.02410938205977073 0.0
0.02795142490950415 0.01355050763176891 0.0
0.2470727426689676 0.06768167006703024 0.0
0.1110240694523756 0.02313884063263221 0.0
0.2017380810489821 0.01313102802579591 0.0
0.1379865833717678 0.03740596973122188 0.0
0.1495686286084334 0.04936340714796422 0.0
0.1619785112028979 0.04967805463678721 0.0
0.1619969274941413 0.06138437857774651 0.0
0.1495611676846986 0.06116184642220764 0.0
0.1372109052260327 0.04855530868614465 0.0
0.2883640474663724 0.02579634054161687 0.0
0.275131135105292 0.02995975772312257 0.0
0.0112515546267189 0.08014902326116058 0.0
0.01979545101783821 0.07494933748615865 0.0
0.2884033663818928 0.07496878432440424 0.0
0.01205769588458962 0.04964503921271231 0.0
0.01299809849753294 0.02506537198116708 0.0
0.2908677350335616 0.0565028973110367 0.0
0.2216828369914704 0.02484063681494521 0.0
0.1162551797482492 0.03274076044744062 0.0
0.0955239898313699 0.07425770887536694 0.0
0.2028950384993379 0.07190938329986854 0.0
0.1745080285820131 0.0498238850273581 0.0
0.01070644778797419 0.06966134971133289 0.0
0.290068428856496 0.03769041488755556 0.0
0.09316540337916956 0.03796711928086629 0.0
0.02501504543956057 0.03799316166264209 0.0
0.08110176248972344 0.07443587873833632 0.0
0.02568156273256691 0.02622656182329267 0.0
0.03628845083621968 0.08340721569106946 0.0
0.122852282068567 0.04520412505476973 0.0
0.06634541174472434 0.08649782509640011 0.0
0.05876886310246841 0.07466739883393625 0.0
0.08052150523529612 0.02538713696849336 0.0
0.03761621086642239 0.02937572823141202 0.0
0.2395093822708655 0.07477421360056799 0.0
0.1099940966821655 0.08688579995587616 0.0
0.2464134631912415 0.02666002923036716 0.0
0.1893522351004255 0.08654476712027273 0.0
0.02314798415877001 0.06254211601637769 0.0
0.2584354505867376 0.07144341355732224 0.0
0.06452652365697187 0.03664834609936903 0.0
0.2025746488878574 0.05098653670744385 0.0
0.103782726967362 0.02874418361532666 0.0
0.2593987879658873 0.02770282425282159 0.0
0.162307203696533 0.0381642241312897 0.0
0.2827133290208654 0.06009730581538374 0.0
0.188705525990178 0.01294569206816095 0.0
0.1115104149393312 0.008621258883874668 0.0
0.207832427115027 0.02458667577686045 0.0
0.2772407207529327 0.07163655253089708 0.0
0.01412628831292818 0.01271715887407341 0.0
0.2313155181980263 0.03659179444353865 0.0
0.2859783232550286 0.08686272143378292 0.0
0.2862166973831035 0.01312186615367385 0.0
0.01294772851562468 0.08837701104445063 0.0
0.03054678135978316 0.07505868678097785 0.0
0.2817916060408773 0.04718357643335549 0.0
0.2140304009925406 0.07677365872324426 0.0
0.282771035263812 0.03865172659220718 0.0
0.0532481196051828 0.02099965038316575 0.0
POLYGONS 166 830
4 45 176 44 7
4 146 145 46 47
4 112 129 111 109
4 178 119 188 134
4 135 178 134 72
4 169 69 170 118
4 165 71 169 118
4 133 71 165 158
4 163 104 171 131
4 75 168 147 74
4 153 122 177 65
4 85 9 49 174
4 171 104 179 137
4 47 48 74 146
4 149 132 116 182
4 45 8 121 176
4 90 124 160 101
4 140 157 95 181
4 145 144 160 81
4 158 85 174 133
4 154 166 164 78
4 159 80 176 121
4 160 144 183 101
4 175 114 190 126
4 138 73 172 166
4 178 135 173 139
4 133 51 52 71
4 141 25 26 70
4 95 163 131 181
4 143 146 74 147
4 80 128 42 43
4 134 39 40 72
4 138 13 14 73
4 159 123 180 111
4 83 127 28 29
4 117 115 116 132
4 127 68 27 28
4 68 125 26 27
4 157 140 19 2
4 79 130 16 17
4 26 125 156 70
4 66 136 14 15
4 72 40 41 135
4 128 80 159 196
4 182 175 68 127
4 113 114 116 115
4 99 98 120 100
4 20 21 76 142
4 147 142 76 143
4 145 81 8 46
4 142 91 2 20
4 130 66 15 16
4 128 67 41 42
4 146 143 144 145
4 99 97 96 98
4 43 44 176 80
4 113 112 109 110
4 142 147 168 91
4 51 133 174 50
4 101 3 89 90
4 48 9 75 74
4 168 75 86 87
4 120 69 54 167
4 95 157 168 87
4 96 97 93 94
4 54 69 169 53
4 109 111 180 108
4 79 131 171 130
4 194 151 177 100
4 179 102 198 137
4 106 90 89 105
4 87 86 92 88
4 14 136 198 73
4 9 85 86 75
4 94 93 88 92
4 96 94 165 118
4 81 82 121 8
4 131 79 140 181
4 60 61 78 153
4 35 155 64 34
4 59 60 153 65
4 69 120 98 170
4 2 91 168 157
4 124 82 81 160
4 113 110 190 114
4 41 67 173 135
4 182 116 114 175
4 61 62 154 78
4 85 158 92 86
4 35 36 152 77
4 82 123 159 121
4 99 102 179 97
4 99 100 177 122
4 58 59 65 161
4 90 106 180 124
4 34 64 162 33
4 93 97 179 104
4 101 183 22 3
4 143 76 183 144
4 125 126 190 156
4 113 115 178 139
4 99 122 164 103
4 137 66 130 171
4 13 138 189 12
4 29 30 192 83
4 55 56 193 84
4 151 150 58 161
4 104 163 88 93
4 33 162 148 32
4 39 134 191 38
4 166 154 189 138
4 87 88 163 95
4 70 156 107 187
4 17 18 186 79
4 149 83 192 148
4 151 84 193 150
4 65 177 151 161
4 107 156 190 108
4 112 173 67 129
4 158 165 94 92
4 84 167 54 55
4 129 196 159 111
4 24 185 23 4
4 18 1 19 186
4 122 153 78 164
4 71 52 53 169
4 125 68 175 126
4 118 170 98 96
4 99 103 172 102
4 12 189 63 0
4 38 191 37 6
4 56 11 57 193
4 30 5 31 192
4 127 83 149 182
4 113 139 173 112
4 117 119 178 115
4 70 187 105 141
4 172 103 164 166
4 107 108 180 106
4 67 128 196 129
4 105 89 185 141
4 82 124 180 123
4 66 137 198 136
4 25 141 185 24
4 21 22 183 76
4 149 197 195 132
4 109 108 190 110
4 191 134 188 152
4 106 105 187 107
4 3 23 185 89
4 79 186 19 140
4 100 120 167 194
4 167 84 151 194
4 62 63 189 154
4 35 77 184 155
4 36 37 191 152
4 32 148 192 31
4 58 150 193 57
4 73 198 102 172
4 132 195 184 117
4 152 188 184 77
4 64 155 184 195
4 195 197 162 64
4 117 184 188 119
4 148 162 197 149
4 10 50 174 49
CELL_DATA 166
SCALARS Von_mises double 1
LOOKUP_TABLE default
361632.2177216973 21709268.178230338 12804679.403685855 10159137.836714152 9955259.652700827 10180464.619558524 10148649.221495794 10430033.17051119 13059502.57525435 17031195.735436764 9281260.445717191 11099913.64368434 11771263.770768194 21659016.107253715 10329331.381162247 11049923.10756277 16322257.002677025 15616776.55407658 17450535.63154936 10747542.213432733 9433798.181947505 11206433.760947902 17502940.18951688 11108439.983876897 9984377.405575322 10341621.3703566 6850933.226875846 6806146.825821156 14242045.75321725 19913422.54027611 6870940.977361558 9806115.042238224 9538608.65775325 14744564.041292084 9826372.48331621 10491557.248170622 9431203.677441329 8752910.33971473 13637876.592147779 6931035.099714937 9336811.067137197 8957061.379837878 9404764.119094126 10557286.845570697 10051963.711760053 10942779.186577406 10565892.528824396 21835048.71243053 20034455.534323204 23883632.63029197 25779403.87460394 8192178.984008169 8428672.043928059 20012102.666880406 11461073.549208503 4474864.398131794 12174739.011347696 17371293.239154257 4511841.719545895 15904619.083146617 23135974.149397086 16101761.006439492 9747103.275056973 16165737.851607034 12717314.937121514 9057918.307114203 14387965.033898802 10016653.27567919 9877003.70252251 10837912.016803758 14516380.216893068 15644853.549510635 9600315.40959143 15637495.302357411 14215262.181785561 11887482.88948043 15807551.98203369 12923308.125695 8572906.658812506 10051884.22910567 8549283.068338363 10393265.64350504 16582450.64378146 16271851.76980196 11678657.014555275 9604426.613771323 10637549.349900529 8723561.268120768 14416508.04874025 10023890.080429649 14557944.442116989 11401503.798936488 10085946.083121523 8632585.33725903 16079862.182945998 10050459.964787094 12683665.696193555 23958701.489178095 20098660.910247345 10914690.109731672 10808380.436522346 10090102.335162299 10052264.167845238 9821828.157039544 9975746.394828187 9816466.695314568 9006066.628535155 14114881.91186189 10027791.568636289 9963276.05723549 9833820.090905728 15411840.236618998 11678029.320704656 3269453.1122334423 10018682.080420764 9917424.328188764 9281946.186072124 12543777.614049511 11043124.639957193 13051419.169969613 9534326.096973056 12592967.939794507 279768.0594760266 931254.1776514897 9312641.962459378 8256608.630025085 10138664.916665418 11052690.419253 10568400.334784264 10563543.148241337 10002571.716093104 10587476.138969027 10001835.510521278 10036235.84270584 11223044.036141567 10397237.568997413 10980739.368087903 9982223.49940698 14449631.055279074 10516261.054451605 10706415.904350942 15938061.660096014 9875814.098602254 4203432.51374829 21763775.72188055 10195332.786740333 12791270.544742767 10003783.274366053 13339556.245959412 10805497.42416572 5317011.816858632 10069191.783370873 9906626.81711872 9138474.870518913 10074065.82879303 9997198.85996402 9999372.671868503 9168201.33863832 10260939.244765632 10234066.768768419 10092882.892243069 10116270.272290995 10110743.26771909 10192670.950707367 10074405.00631594 459455.91267204814
SCALARS Stress double 1
LOOKUP_TABLE default
376865.80121183826 302683.7753944482 61111.16758849764
22011605.22755313 706241.1593325777 780658.943931945
11742632.543090614 -1652750.4176366497 1144722.7912441175
10042501.230568893 -218147.22567952826 198257.93382682218
9803767.797402604 -259845.07541913277 355129.77974132355
9758743.29310917 -585131.7835662654 -886239.0829939696
9414403.751656298 -800696.5678170855 -1435837.4160581303
9164169.5734652 -901793.2542451735 -2289553.8569210735
11863547.22926596 -1567040.7597742132 1708856.91282126
18447887.85310764 3436159.705708642 -663263.9773794808
9866243.447758313 1321912.5597521015 -176912.41367211327
8109446.878578955 3093883.83678954 -4931616.491177008
10862813.384998182 -1340448.995733655 1183791.2711253779
21973922.72247444 766785.4992188764 -916701.3733553161
10109436.697211847 -416866.5176743071 -188249.02102988123
8011360.26789313 3326312.398201657 4949843.100415607
17306691.365863383 2239955.6844918923 -463079.49800364504
14217898.035902102 -907202.2367464305 3055790.164168475
18869462.52645766 3584314.1487905392 1041049.3723512765
8860821.998146616 -307331.18795192044 -3375294.4432879104
9928956.508140648 1201211.900467255 546577.6810127137
9303343.5317462 -240428.25785085358 3499398.250372491
18902026.979640126 3571385.5770816263 -1128113.9025337475
10554507.707397128 -897951.8254938497 -756317.6109580073
10020877.657176036 122199.80541660581 399758.1203010102
10025782.13503062 -514961.39894098265 578719.5960581305
6379228.750361031 -257956.5750228391 -1228633.5275894732
6211811.958826317 -258044.0542729701 -1422148.4834145897
13014286.050767787 -1347596.5780510136 2168732.4977628416
21160605.637864657 2874408.6545286314 -667125.4688746202
6345153.402524198 -229000.2149229125 1347018.389071477
9783460.450789664 -40983.07919786505 117129.39024976482
9526289.303505551 -19190.157083138252 131260.5315119865
13558695.598184831 -1741309.2059004442 1518980.275036745
9796806.5756956 -54409.66795146234 -121347.56493439055
10220812.807039566 -521984.0361372623 -7970.769377324052
9369287.083430992 -92877.47616615341 -308350.66092129896
8522331.968711978 -261821.92873745266 -749091.252651738
11598067.261739742 3209559.6393367457 5112074.89622842
6416080.169965054 -332216.99565701763 1242479.214567646
8786644.252054874 -472513.861037401 -1365752.9231494344
8889540.83920491 -100848.03034989776 315356.5287718384
9310949.53233125 -145868.80968104882 354190.20655645325
9091564.182055058 -814103.9117585008 2629038.0445756586
9821117.335533503 -369256.8263609247 -524329.260984205
10487041.04901715 -859607.091366235 -65133.60041710598
10377332.219635043 -329396.51104503643 -375189.6611048635
22077420.606450237 584146.5592019882 798346.9840418431
21145793.348929994 2556789.522516529 766594.7252873771
24489598.997558787 3860614.985759982 4095852.1040384434
26160613.801967356 3262485.8271679836 4278035.6715328
8035152.228620964 -129356.65197824496 705216.6653049958
8179777.180785596 -228122.65267342344 859403.9181069148
21175643.055029564 2650913.2858424457 628184.3194263162
10918931.66440939 -995820.7146756412 -298987.72494371166
3612512.0756942173 409548.068608387 1661920.13522061
11333630.357403567 -1504209.356888741 392553.30665420525
18761682.61241544 3924446.67159511 1631873.7242097105
3692309.2927991357 353370.0687906085 -1623109.050743825
16272656.412689617 2449130.895850335 -2708824.1537248585
23848834.062414154 4166402.383923846 -4021249.5558671355
16802868.402566366 1534718.417875291 -347674.1496094223
9678225.432055425 -112195.87270975731 -282565.5549057732
16192334.831049949 329170.25328731316 1205688.587218589
11768778.447807806 -1680403.7730000317 -456762.7059856727
8968784.23791205 -139662.99565641693 -334006.1505004655
13276673.16155748 -1995149.9195274771 302164.9585956371
8707311.133379834 -690027.4971046126 2451642.5525931646
10153276.58109968 663224.1351083784 -503391.37622129207
10334794.432033116 -817233.4557880333 716135.6114098338
13348054.691518426 -608143.9263215114 -2832393.165367484
14898313.90506471 -1338929.9051464845 -594741.9768674598
9503520.685749238 -162579.33466533077 304216.16713968595
15816978.521515548 1719752.401410503 -2489858.6475570207
13066435.77577995 -2000688.5022460846 -631746.9718595358
10934534.892782079 -1391295.6995837993 -1238186.9849722642
16229034.336631877 2518652.834230174 2647567.147056695
11175614.881935231 -314847.73534372525 3582353.918362439
9473228.909661502 2278920.6229889523 222051.1416346632
10006597.220387196 -89960.46635428899 5703.396949339478
9460729.066074708 2314917.7415246484 -205598.2601214265
10066401.676068598 -529036.1459185114 -600599.2681875499
17782817.932308346 4403651.466374027 2426674.1139808907
17291174.4279722 2318013.1401078966 406788.86172546516
10975062.176186075 -1279627.4990221353 -293031.2793837559
9369950.589858565 -306675.1742988041 702722.2377015302
10262881.158873083 -670030.5703400904 -410423.1186692108
9550866.566067215 2248759.6807067785 658825.3647834591
13175344.332955467 -1121382.9227374294 -2464000.827372828
9996883.065874388 -53589.673894930085 26455.97069148455
13540254.73563258 -599754.2278135739 2589383.31891307
10896591.117804952 -936250.5261666694 245007.94090675729
10253771.629511556 354501.54425181384 -178682.48715593855
9516682.912365045 2411202.157268464 -601948.6344855847
15659412.988868713 -694551.3757876215 -813651.0754070053
10004482.596347077 -91288.20439150723 -12229.67468904336
11761660.50124238 -1642859.3438104952 415121.2953558019
24573615.494377866 3943415.402906654 -4143679.8214377235
21252212.301245354 2652981.18559861 -740056.9582384317
10172659.43186376 -1038690.4410354447 -1155037.9980334414
10401865.788839113 -742478.7991718991 340507.55464608315
10263413.535522588 361345.42455492605 129839.30892815809
9356746.406366589 -745476.6952108836 1410477.4244966672
9845202.876448268 66839.1801936885 254208.8911918224
9962436.977461118 -26280.64719535786 -30852.553731775894
9825276.238208089 37816.07005695782 -256312.63626159265
9665587.281871475 1817346.140654593 -805942.380706392
12988942.010570282 -1953755.9928872746 664050.9663393106
9999315.01567463 -56536.71267583469 -24345.851394542442
9951536.874080604 -22955.501562435984 40058.96147113814
10157771.82962299 878807.566471341 747911.1001301323
14553531.374413433 -1428114.899512735 982499.677777051
10327652.890127815 -1238219.8252251795 -2265308.0514646093
2749712.410937162 576763.1645452797 1208536.6349400065
9961361.242674634 -111490.22342184909 -86116.89929704144
10262050.680955054 1022979.8778589085 -912323.8914152775
9842820.071848607 1350382.3930207659 -497143.9595892742
11444437.151359715 -1607356.6419218895 -1340687.345690151
10274839.159619106 -1022960.003756027 1267686.2628408757
11747131.512932884 -1640306.1172967728 -1860550.7901617682
9529135.502648937 -2949.6144116946243 -153660.57826942243
11316309.053453812 -1521794.8607336392 1913725.022152408
262070.53499910064 288441.71865452995 25707.665858912427
837964.7378686916 253651.11975082287 323141.478304916
9886559.300790826 1296459.6281802682 198295.18441775444
8091320.078118771 -160986.30139387443 -676662.6882058609
9728475.969654832 -577699.1774517933 -855455.5696845687
10436177.261810925 -982636.6427532517 -822116.1119336209
10406340.749411637 -291705.1789104579 304676.0256892892
11046858.322124284 1880282.5173364398 1504561.651030153
9999928.40552981 -5273.944484120005 -5942.4494787411795
11091901.756807575 1981717.866841122 -1540365.8218663712
10000738.580094786 -2180.001110294064 6709.657590396123
9921460.430176925 -209567.4856715128 -236304.0239851074
10637589.5151316 -984330.0123472946 672954.3205776731
10138054.840520969 -489385.0445779253 201232.0176994967
9356808.751539586 -749524.1261332706 -2912720.7635037764
10167626.4821187 432932.35716344445 399425.33136723225
13293129.55141834 -1887457.5623516333 -1069552.9306009058
9507342.749916276 -938773.2707863344 1861508.8769795941
8593032.901020274 67140.56737417993 -3713020.3486099225
15605972.05832151 -517536.3215681331 842801.7517403447
9542469.840400338 -465324.33289217437 778053.8344252413
3343236.0605131416 488195.3164468475 -1621258.2624655995
22031178.375246946 634582.2857317468 -788884.005781208
10068992.278792135 -246942.14584005676 -65233.27076162438
11853017.999777513 -1681242.3093700116 -350330.9806398091
9940095.259337174 -122849.60885926135 106391.09417363931
11852096.61165497 -1343227.5744809147 -2565621.6560565406
7532978.038249887 3483706.8721415433 -4970563.021343194
3435554.0596578033 1200266.6882012787 2526560.5035501905
10077037.022286154 52169.579554857504 -348779.3673934654
10022890.118128013 300230.46042248764 -447946.1125149057
9795789.469041556 2120714.94739462 1130026.0908115446
10016518.635615971 -113953.81945823248 24157.23522560982
9989467.913564075 -15365.557035002203 16186.519303885747
9990486.039365489 -17676.228287295846 -15662.770876322518
9846970.90211869 2286819.728990412 -1208550.467226071
10075681.993143657 -306891.8286006376 440143.72352522047
10083469.075575128 -294783.81795122573 12014.129363451768
10017428.690304946 -147876.76326865776 68787.2155671608
10027586.32011945 -175065.48693590748 10076.50653926056
10029580.970769135 -160201.09248590632 -27207.583414676457
10056546.142281584 -264687.26040981966 90409.81537141204
10001192.409236548 -143306.39966024912 -73063.95384007435
490697.21830406704 257590.5051855804 -100601.60971590971
SCALARS Strain double 1
LOOKUP_TABLE default
1.3752916759303066e-06 9.116540145716189e-07 7.638895948562207e-07
0.00010480640807573729 -2.835211735064116e-05 9.758236799149313e-06
5.883873879029621e-05 -2.4882404714249198e-05 1.430903489055147e-05
4.859589133784978e-05 -1.553316151370287e-05 2.4782241728352773e-06
4.750827557705935e-05 -1.538930487807651e-05 4.439122246766545e-06
4.776097513547619e-05 -1.688824409374527e-05 -1.1077988537424621e-05
4.641640731731453e-05 -1.7427969679394107e-05 -1.794796770072663e-05
4.5359170912205535e-05 -1.7553096760984295e-05 -2.8619423211513412e-05
5.9296439698068384e-05 -2.4644735233432702e-05 2.1360711410265748e-05
8.373576894901468e-05 -1.0087531972229085e-05 -8.29079971724351e-06
4.552725807611866e-05 -7.874809973920152e-06 -2.211405170901416e-06
3.4525392920875455e-05 3.178123909691603e-06 -6.16452061397126e-05
5.415840424864558e-05 -2.2111985630928415e-05 1.4797390889067223e-05
0.00010453791861879219 -2.8006689026555076e-05 -1.1458767166941452e-05
4.92043108293949e-05 -1.6585084263643563e-05 -2.3531127628735145e-06
3.3718589175156895e-05 4.437039989585184e-06 6.187303875519508e-05
7.997454163709527e-05 -1.4192556371476551e-05 -5.7884937250455625e-06
6.966374378329824e-05 -2.4868132920755104e-05 3.8197377052105935e-05
8.554888597029085e-05 -9.983291390128649e-06 1.3013117154390954e-05
4.304337189678939e-05 -1.425758551632647e-05 -4.219118054109888e-05
4.600285066346381e-05 -8.545553134494905e-06 6.832221012658922e-06
4.507438465914161e-05 -1.4574189025839968e-05 4.374247812965613e-05
8.572409281978674e-05 -1.0092415946203905e-05 -1.410142378167184e-05
5.203794834156387e-05 -1.953992373900475e-05 -9.45397013697509e-06
4.800104670938007e-05 -1.3865689864116367e-05 4.996976503762627e-06
4.894360843611978e-05 -1.693603865120273e-05 7.23399495072663e-06
3.1041421744557134e-05 -1.0440986539092062e-05 -1.5357919094868415e-05
3.023665949571255e-05 -1.0199940586158009e-05 -1.7776856042682372e-05
6.45123318470341e-05 -2.5249434583083412e-05 2.7109156222035522e-05
9.758789923800994e-05 -1.6700831907840222e-05 -8.339068360932752e-06
3.0835833975966694e-05 -1.0252626133077748e-05 1.6837729863393462e-05
4.709497776225492e-05 -1.4307794300167134e-05 1.4641173781220602e-06
4.582714591649275e-05 -1.3832100712186555e-05 1.6407566438998312e-06
6.769754019209119e-05 -2.79274898334418e-05 1.8987253437959312e-05
4.717850709654346e-05 -1.4391594426250687e-05 -1.516844561679882e-06
4.989138470134973e-05 -1.7251095568505442e-05 -9.963461721655064e-08
4.5178607337888646e-05 -1.3959921159593517e-05 -3.854383261516237e-06
4.1350377631409686e-05 -1.3550584227649264e-05 -9.363640658146727e-06
5.113076620162846e-05 -1.2974064383902722e-06 6.390093620285524e-05
3.132569840702962e-05 -1.0851158878108335e-05 1.5530990182095573e-05
4.29249923575293e-05 -1.494474584929742e-05 -1.7071911539367933e-05
4.2883631001489804e-05 -1.3306299433227748e-05 3.9419566096479795e-06
4.497456815017099e-05 -1.4130546487405886e-05 4.427377581955666e-06
4.4883631517224084e-05 -1.7026794069110666e-05 3.286297555719573e-05
4.774949222808549e-05 -1.5940346283754692e-05 -6.5541157623025626e-06
5.165828450205298e-05 -1.9258266375343174e-05 -8.141700052138249e-07
5.036611140840651e-05 -1.655094315834399e-05 -4.689870763810795e-06
0.00010529892614754636 -2.903403664775521e-05 9.979337300523038e-06
9.79747908277646e-05 -1.820648308731956e-05 9.582434066092215e-06
0.00011217026202803266 -1.6760888045709877e-05 5.1198151300480554e-05
0.00012106667333565847 -2.2046626506837615e-05 5.347544589416001e-05
3.8817111654877114e-05 -1.2211068848867956e-05 8.815208316312448e-06
3.96548748874405e-05 -1.2894499071678376e-05 1.0742548976336435e-05
9.798254360229246e-05 -1.7797017455127038e-05 7.852303992828953e-06
5.393114364813501e-05 -2.0536058721146433e-05 -3.737346561796396e-06
1.6777152188037026e-05 -3.241372856249415e-06 2.077400169025763e-05
5.6658140213798985e-05 -2.3578358000527938e-05 4.906916333177565e-06
8.454013755258126e-05 -8.192587077545771e-06 2.039842155262138e-05
1.7241818616163236e-05 -3.626551533890058e-06 -2.0288863134297816e-05
7.470152473045443e-05 -1.1695509749791108e-05 -3.3860301921560735e-05
0.00010864862186171636 -1.4366576128848085e-05 -5.0265619448339195e-05
7.856948498655664e-05 -1.6856452417762588e-05 -4.345926870117779e-06
4.669175093205939e-05 -1.4498382222723006e-05 -3.5320694363221644e-06
7.73729988224219e-05 -2.1771779788594575e-05 1.5071107340232362e-05
5.900432490244141e-05 -2.5053063977607556e-05 -5.709533824820909e-06
4.3320592002927764e-05 -1.3607203206875154e-05 -4.1750768812558196e-06
6.670777950680636e-05 -2.8741114749974623e-05 3.777061982445464e-06
4.285730472361162e-05 -1.5876061716916166e-05 3.0645531907414566e-05
4.785725644503446e-05 -1.145557134241118e-05 -6.29239220276615e-06
5.0865213792161175e-05 -1.8834960506721e-05 8.951695142622922e-06
6.505047052603306e-05 -2.2175770835466533e-05 -3.540491456709355e-05
7.355765806061856e-05 -2.792511575320143e-05 -7.434274710843247e-06
4.592449272186941e-05 -1.4488632405721644e-05 3.802702089246074e-06
7.356275385140576e-05 -1.454490939925078e-05 -3.112323309446276e-05
6.57050111848739e-05 -2.846451555278879e-05 -7.896837148244198e-06
5.457655578200586e-05 -2.2459885420280883e-05 -1.54773373121533e-05
7.439153118443669e-05 -1.1298353205573992e-05 3.3094589338208685e-05
5.41830250122036e-05 -1.7632366345789882e-05 4.477942397953049e-05
4.2257465013292384e-05 -2.7069617784110474e-06 2.7756392704332896e-06
4.823839115525713e-05 -1.4865094386877152e-05 7.129246186674348e-08
4.214545069046785e-05 -2.515870087970019e-06 -2.5699782515178314e-06
4.915919480694304e-05 -1.70622915804764e-05 -7.507490852344373e-06
7.914289659805837e-05 -4.476893814031143e-06 3.033342642476113e-05
7.978735810547998e-05 -1.3794899943671942e-05 5.0848607715683145e-06
5.461033858602267e-05 -2.1981471884028643e-05 -3.662890992296948e-06
4.5490159337250994e-05 -1.4988751688732565e-05 8.78402797126913e-06
5.030716504795726e-05 -1.8023533259625073e-05 -5.130288983365134e-06
4.267422433584222e-05 -2.963943697660507e-06 8.23531705979324e-06
6.496038081623411e-05 -2.4394164531846484e-05 -3.080001034216035e-05
4.813923061559071e-05 -1.4676224007967533e-05 3.306996336435568e-07
6.596240867296467e-05 -2.241264734857379e-05 3.236729148641337e-05
5.373781863295652e-05 -2.0217441641866134e-05 3.0625992613344665e-06
4.878567868382699e-05 -1.3084759349046411e-05 -2.2335310894492314e-06
4.227558781338705e-05 -2.133666905966585e-06 -7.524357931069809e-06
7.628739616156251e-05 -2.5924881117539595e-05 -1.0170638442587566e-05
4.8230139700310237e-05 -1.4868427804305916e-05 -1.52870933613042e-07
5.8915953386468894e-05 -2.4862295645111582e-05 5.189016191947524e-06
0.00011245476381493207 -1.6483986756763008e-05 -5.179599776797153e-05
9.834768243060467e-05 -1.789751204218748e-05 -9.250711977980397e-06
5.04051277123769e-05 -1.9665808993243142e-05 -1.4437974975418014e-05
5.107985302207059e-05 -1.8572300652998236e-05 4.25634443307604e-06
4.88221630199813e-05 -1.3065762673566587e-05 1.6229913616019766e-06
4.605956449485507e-05 -1.707932989000414e-05 1.7630967806208342e-05
4.7236303473029624e-05 -1.38784696285615e-05 3.17761113989778e-06
4.7934236402017915e-05 -1.4495248752085065e-05 -3.8565692164719874e-07
4.718236258264904e-05 -1.3989263468295521e-05 -3.2039079532699078e-06
4.384799730613027e-05 -5.203509826475237e-06 -1.0074279758829899e-05
6.526475388671376e-05 -2.8127108634895957e-05 8.300637079241382e-06
4.815517321864125e-05 -1.4693900083549153e-05 -3.0432314243178053e-07
4.787703617571796e-05 -1.4463541172051047e-05 5.007370183892266e-07
4.756793057539224e-05 -1.0425596069305557e-05 9.348888751626654e-06
7.202868194359257e-05 -2.7856607268445987e-05 1.228124597221314e-05
5.14380713350739e-05 -2.0848633135882332e-05 -2.8316350643307617e-05
1.2387901257565279e-05 -1.1930315323839843e-06 1.510670793675008e-05
4.8051963027409565e-05 -1.4903358635693459e-05 -1.0764612412130179e-06
4.7861330373064336e-05 -9.882862146286575e-06 -1.1404048642690971e-05
4.537358343241529e-05 -7.704152060258736e-06 -6.214299494865928e-06
5.733963530738598e-05 -2.4234075900624062e-05 -1.675859182112689e-05
5.087368827281689e-05 -1.9737556498277687e-05 1.5846078285510948e-05
5.8842419942893824e-05 -2.482906524604153e-05 -2.3256884877022102e-05
4.581740570659829e-05 -1.3758126275030652e-05 -1.92075722836778e-06
5.6600228421509165e-05 -2.3637921042162417e-05 2.39215627769051e-05
8.439327855901039e-07 1.0087526834365372e-06 3.2134582323640503e-07
3.6628336631896385e-06 1.0873549952958724e-08 4.03926847881145e-06
4.5661641405465126e-05 -8.026481548350864e-06 2.4786898052219305e-06
3.9132769079504485e-05 -1.2444145792449546e-05 -8.45828360257326e-06
4.760473905235755e-05 -1.6808855617058858e-05 -1.0693194621057108e-05
5.159119353190817e-05 -1.9776393371617928e-05 -1.027645139917026e-05
5.045121299559987e-05 -1.6411574056413217e-05 3.808450321116115e-06
5.0397949840977646e-05 -6.893148938946368e-06 1.880702063787691e-05
4.808418552343774e-05 -1.4448329164149345e-05 -7.428061848426474e-08
5.046820383055403e-05 -6.470445481736301e-06 -1.9254572773329643e-05
4.808361817513401e-05 -1.4434622957397741e-05 8.387071987995154e-08
4.800158978787682e-05 -1.5317334686175915e-05 -2.953800299813842e-06
5.256196403286437e-05 -2.0075033013878723e-05 8.411929007220914e-06
4.9446492086030514e-05 -1.697500719583758e-05 2.515400221243709e-06
4.6065701872017144e-05 -1.70988786134382e-05 -3.64090095437972e-05
4.825839795658494e-05 -1.258344032438541e-05 4.992816642090403e-06
6.663157125059535e-05 -2.8247098210467003e-05 -1.3369411632511324e-05
4.70623785151547e-05 -1.8225846614236628e-05 2.3268860962244926e-05
4.121582082119242e-05 -1.2071006264095688e-05 -4.641275435762404e-05
7.577515843649976e-05 -2.499676893781051e-05 1.053502189675431e-05
4.654839971282688e-05 -1.6000313870251325e-05 9.725672930315514e-06
1.5369122430668693e-05 -2.47488221974565e-06 -2.0265728280819996e-05
0.00010500386389195875 -2.8724861667511233e-05 -9.861050072265103e-06
4.876478328146228e-05 -1.570980687248893e-05 -8.154158845203049e-07
5.941053217590632e-05 -2.51785947562657e-05 -4.379137257997614e-06
4.796610645189882e-05 -1.4927298974328912e-05 1.3298886771704913e-06
5.8918581173073304e-05 -2.355219499027599e-05 -3.207027070070676e-05
3.119166334907416e-05 5.883718560897008e-06 -6.213203776678993e-05
1.4785932948064517e-05 8.153868764612387e-07 3.158200629437738e-05
4.8372048790479324e-05 -1.4283372726591294e-05 -4.359742092418317e-06
4.775394701923686e-05 -1.3012675841422674e-05 -5.599326406436321e-06
4.4036418196265245e-05 -3.932797564028109e-06 1.412532613514431e-05
4.832069606468e-05 -1.499475677953377e-05 3.019654403201228e-07
4.804844990708931e-05 -1.4481759284154928e-05 2.023314912985718e-07
4.805667744159461e-05 -1.4494336731235301e-05 -1.9578463595403145e-07
4.404290857414215e-05 -3.2080362579095907e-06 -1.5106880840325888e-05
4.888341125828773e-05 -1.6007675127614107e-05 5.501796544065256e-06
4.8903385677694706e-05 -1.596069490684502e-05 1.5017661704314709e-07
4.8373998650411266e-05 -1.5159160434423759e-05 8.5984019458951e-07
4.846204791442414e-05 -1.5304525879671838e-05 1.2595633174075697e-07
4.845019855055244e-05 -1.5235939344791572e-05 -3.4009479268345573e-07
4.873054000194486e-05 -1.577716876487642e-05 1.1301226921426507e-06
4.828934773622416e-05 -1.5113769819380838e-05 -9.132994230009293e-07
1.9875964747518895e-06 5.306795177613475e-07 -1.2575201214488714e-06
POINT_DATA 199
VECTORS Displacement float
0.0 0.0 0
4.028386396462887e-06 2.6770444396977366e-09 0
6.488699347021295e-06 7.746885296495101e-08 0
1.2671408157859132e-05 6.804771062110793e-08 0
1.527429897818785e-05 -1.3590561953194587e-07 0
1.9277185590825933e-05 6.215447619971783e-07 0
1.9323535467129138e-05 -8.26659573562712e-07 0
1.5321047151958405e-05 4.920404970151237e-08 0
1.2694322495774535e-05 -1.4942338462818263e-07 0
6.57636430287163e-06 -1.3673779041411718e-07 0
3.973130584660999e-06 7.414485399954908e-08 0
0.0 0.0 0
8.627600273947799e-07 4.741391348994073e-07 0
1.5759203246666827e-06 6.71373532908567e-07 0
2.263627816432859e-06 7.995425765272371e-07 0
2.9246458822090995e-06 9.000340618511659e-07 0
3.4848859320855013e-06 9.859814718769304e-07 0
3.873992003326997e-06 9.883551213034774e-07 0
4.057134329226736e-06 7.034617342125827e-07 0
4.773872683149926e-06 -8.079142521446698e-10 0
8.260031848604588e-06 4.737859018711281e-07 0
9.602464015881019e-06 5.480869247259835e-07 0
1.0943229845646026e-05 4.556068528800217e-07 0
1.4520003693715803e-05 -1.665185408037889e-07 0
1.524776194446071e-05 6.565727823543289e-07 0
1.534290301280506e-05 9.33141621334862e-07 0
1.5769030627123834e-05 9.285668525467069e-07 0
1.635180034851537e-05 8.248259134532257e-07 0
1.7039915325215038e-05 7.463851771132252e-07 0
1.7774583973602646e-05 6.878532041226716e-07 0
1.8524973971921548e-05 6.494507499572036e-07 0
1.9298870460768126e-05 4.420910045192817e-07 0
1.93159330092244e-05 2.631486413063872e-07 0
1.9326582582017815e-05 8.19570540964749e-08 0
1.9333120994537366e-05 -1.0204452600920541e-07 0
1.933775422699535e-05 -2.8646977145278285e-07 0
1.9338453309122373e-05 -4.681644545583042e-07 0
1.9333314839240995e-05 -6.473259700036394e-07 0
1.8571333855126638e-05 -8.401014285101214e-07 0
1.7822308275986535e-05 -8.639481901141104e-07 0
1.7084843531476068e-05 -9.045779135401694e-07 0
1.6403377165096045e-05 -9.79756264783879e-07 0
1.5797152494345244e-05 -1.046170683868187e-06 0
1.539716148361963e-05 -1.0613086293701748e-06 0
1.5304009519679053e-05 -7.564497442456941e-07 0
1.455135111128546e-05 7.030466706216413e-08 0
1.0969637466975214e-05 -5.268160369977867e-07 0
9.627800317431385e-06 -6.036218594726753e-07 0
8.27946201184352e-06 -5.070261948744432e-07 0
4.7358285347792305e-06 8.925161919567952e-08 0
3.988718343477807e-06 -7.17313467017291e-07 0
3.894607855800318e-06 -1.0120036980421313e-06 0
3.503392101011754e-06 -9.908936033290292e-07 0
2.927577774689034e-06 -8.952895974897381e-07 0
2.2595963698196685e-06 -7.996415380041707e-07 0
1.5733975653321523e-06 -6.713327129466519e-07 0
8.634383737023388e-07 -4.7532413004216964e-07 0
0.0 0.0 0
0.0 0.0 0
0.0 0.0 0
0.0 0.0 0
0.0 0.0 0
0.0 0.0 0
0.0 0.0 0
1.888772858042184e-05 -7.62708301053153e-08 0
4.7579808324773527e-07 -5.715167744045336e-08 0
3.0330570562126475e-06 7.623916733276548e-07 0
1.5973314997681667e-05 -7.87191201529317e-07 0
1.662712340605099e-05 6.034596355005499e-07 0
2.5355283745303217e-06 -6.104798155446738e-07 0
1.5262053340909266e-05 7.609404457232181e-07 0
3.657520768725944e-06 -8.504569005868649e-07 0
1.726921465060043e-05 -7.573798962058855e-07 0
1.9088009016873135e-06 5.236150101480455e-07 0
8.277635261715585e-06 -1.4413702856678274e-07 0
7.1843813408295915e-06 -1.0370855022951823e-07 0
9.608568483630773e-06 2.3749400886808418e-07 0
1.8859843651112166e-05 -3.519342737168394e-07 0
5.255780858981466e-07 7.009305012851459e-08 0
4.4639836811631025e-06 8.303753739846709e-07 0
1.5016779014996704e-05 -9.281367919690923e-07 0
1.1917971897716133e-05 -1.1603563244470939e-07 0
1.2930632830897502e-05 -2.9380495467031225e-07 0
1.796586868538555e-05 4.832581878219928e-07 0
1.188654645935899e-06 -4.376577811364684e-07 0
5.5254237588561534e-06 -5.639311201515453e-07 0
6.041650846328548e-06 -2.7545345499313806e-07 0
6.0430529162975395e-06 5.075780579266967e-08 0
5.014356920674041e-06 1.4413859903292807e-08 0
1.3609426979520676e-05 4.701246165536517e-07 0
1.296693159862169e-05 2.1472214930168166e-07 0
7.551324828702219e-06 6.221324687953681e-08 0
4.9796230941666206e-06 -3.451815695068308e-07 0
4.044277591702848e-06 2.3242573326583235e-09 0
4.042220157148288e-06 -3.301395892621472e-07 0
5.676380409246447e-06 3.6029739634130536e-07 0
3.2023177629332673e-06 -2.989971632227007e-07 0
3.115994214072788e-06 -3.033254039968053e-09 0
2.5276368441028137e-06 -3.251360195140342e-07 0
2.004397961104518e-06 -1.4025291831549211e-08 0
1.5735418541033057e-06 -2.3927035570389387e-07 0
1.1947422151181693e-05 3.6481162570107324e-08 0
2.3447206998898225e-06 3.0244110356555424e-07 0
1.562874809749883e-06 1.675063645397578e-07 0
3.9785715157723446e-06 3.30529801634732e-07 0
1.4322648114279946e-05 6.065272719734346e-07 0
1.3938498525313559e-05 3.363621161727295e-07 0
1.4806825637865837e-05 4.366968612576327e-07 0
1.5007271872767906e-05 1.3126989364575179e-07 0
1.5418291188723223e-05 -1.7529624404410175e-07 0
1.593325846461815e-05 -3.6968898939534284e-08 0
1.4802740268700241e-05 -4.075553109012104e-07 0
1.592490380148629e-05 -4.1148364003534414e-07 0
1.6520628429439276e-05 -1.845701467117119e-07 0
1.6677928618598873e-05 1.364757893990441e-07 0
1.7303228699063038e-05 -1.8795030027360635e-07 0
1.7341886928426047e-05 6.747161425785799e-08 0
1.7893205649003113e-05 -2.1268849785842385e-07 0
3.2192655012226205e-06 -5.53364787943897e-07 0
1.7864902108701084e-05 -3.719082372778087e-07 0
2.0735177768173544e-06 -4.2294113829599895e-07 0
1.3599303220240694e-05 -5.645826357649302e-07 0
1.0942480655305808e-06 -8.246917492825681e-10 0
1.3679839710078285e-05 -3.7884980336188864e-07 0
1.2793564481318634e-05 -4.855728223055372e-08 0
1.6060096107839598e-05 6.286069316067576e-07 0
1.6263246619134656e-05 4.332122345475588e-07 0
1.7268033577919072e-05 5.336665785247516e-07 0
1.5505962505637446e-05 -9.102794627071798e-07 0
1.5453864937557682e-05 -6.182790305253177e-07 0
3.6701797515374733e-06 8.521253941038573e-07 0
4.684548604130253e-06 6.393348018017444e-07 0
1.7949392116413128e-05 2.2623760983019155e-09 0
4.206746165726125e-06 -8.888440538575309e-07 0
1.7879442311292304e-05 -6.434258102028057e-07 0
1.688738896884036e-05 -7.013244022174087e-07 0
2.5937119083050355e-06 6.936431396018393e-07 0
3.11715345797298e-06 5.682828542970193e-07 0
1.3046593974798397e-06 4.529238096416866e-07 0
1.6749532641004336e-05 -4.272268228491163e-07 0
5.388488331330294e-06 6.406670483592307e-07 0
1.4935333307047415e-05 8.078260619827785e-07 0
8.37006504293237e-06 1.5888091293869264e-07 0
9.572866641444017e-06 -1.3754460950500237e-08 0
1.0737623039491746e-05 -3.1311658479470914e-08 0
1.0848727711136347e-05 -1.901747141431288e-07 0
9.576448350126544e-06 -2.7317301564490863e-07 0
8.417754314041728e-06 -5.239653523803428e-09 0
1.8756929507002395e-05 2.667383849827549e-07 0
1.812160066024274e-05 2.275037730630916e-07 0
4.880922822812626e-07 -1.578104538284026e-07 0
8.679393677696313e-07 -2.1928991033302632e-07 0
1.8780561367258623e-05 -4.723134399546124e-07 0
5.084769998626717e-07 1.6347631222220852e-09 0
5.588198417783065e-07 1.4822249447017918e-07 0
1.8895115935670574e-05 -1.9582183925470666e-07 0
1.5496356934088353e-05 5.585648900762042e-07 0
6.332665681702988e-06 3.235150475270305e-07 0
4.669095176664333e-06 -6.676084585208726e-07 0
1.4415182493365114e-05 -6.71324435916932e-07 0
1.1800418345173235e-05 -4.032865194463673e-08 0
4.5352625113552794e-07 -9.719190132000017e-08 0
1.8847784179476763e-05 8.760968726274485e-08 0
4.85495442215722e-06 3.5463555849416033e-07 0
1.101730876127736e-06 1.290548873097022e-07 0
3.894240147345491e-06 -6.29324747192963e-07 0
1.1444726583248966e-06 2.6494729035104335e-07 0
1.6893474424022737e-06 -4.876141344029301e-07 0
7.21903509730608e-06 3.552120295831802e-08 0
3.068960447654896e-06 -7.463862681714186e-07 0
2.7619542471154706e-06 -4.977903356160846e-07 0
3.871692733686653e-06 6.292932534582754e-07 0
1.7181666947698661e-06 3.125788895549699e-07 0
1.6411337317488238e-05 -5.906497878256528e-07 0
4.642733412128253e-06 -7.142643571927811e-07 0
1.671995001824896e-05 3.7760273031188457e-07 0
1.4608020146326833e-05 -7.337147691870285e-07 0
1.014669853142974e-06 -1.2555516337906183e-07 0
1.7326286242145644e-05 -4.6188379134690234e-07 0
3.1188423336378482e-06 3.0468793430726065e-07 0
1.3969453591230717e-05 -8.659189444921508e-08 0
5.266870314027791e-06 5.61024792724687e-07 0
1.7356233113198576e-05 3.051528241171043e-07 0
1.0874253604693142e-05 1.2409706253812677e-07 0
1.8501717752525445e-05 -2.503918127950165e-07 0
1.4596853338480844e-05 6.11010630968387e-07 0
4.40246864048156e-06 6.109163638243894e-07 0
1.4790141816104532e-05 6.166517792875104e-07 0
1.824028040453108e-05 -4.3145355498668877e-07 0
6.353358824095395e-07 2.6309991375781547e-07 0
1.5884224509913077e-05 2.5017361156334043e-07 0
1.8660523899165187e-05 -6.477702574072928e-07 0
1.863814831521742e-05 4.558886860336117e-07 0
5.83829046007385e-07 -2.516515655904212e-07 0
1.38519506416604e-06 -3.252132356347622e-07 0
1.845118666624771e-05 -5.036228414966938e-08 0
1.5173296083033247e-05 -7.551306890438369e-07 0
1.8494947206908346e-05 8.107747916160435e-08 0
2.4866014001926983e-06 5.40677115118809e-07 0