# vtk DataFile Version 2.0
Really cool data
ASCII
DATASET POLYDATA
POINTS 204 float
0.0 0.0 0.0
0.125 0.0 0.0
0.125 0.0287037037037037 0.0
0.175 0.0287037037037037 0.0
0.175 0.0 0.0
0.3 0.0 0.0
0.3 0.1 0.0
0.175 0.1 0.0
0.175 0.0712962962962963 0.0
0.125 0.0712962962962963 0.0
0.125 0.1 0.0
0.0 0.1 0.0
0.01562500001914041 0.0 0.0
0.03125000004302709 0.0 0.0
0.04687500009029187 0.0 0.0
0.06250000012942511 0.0 0.0
0.078125000069625 0.0 0.0
0.09374999998136457 0.0 0.0
0.1093749999689982 0.0 0.0
0.125 0.01435185188339959 0.0
0.1374999999728949 0.0287037037037037 0.0
0.1500000000514996 0.02870370370370371 0.0
0.1624999999674739 0.0287037037037037 0.0
0.175 0.0143518518139505 0.0
0.1906249999454511 0.0 0.0
0.2062499999464675 0.0 0.0
0.2218749999813653 0.0 0.0
0.2375000000284603 0.0 0.0
0.253125000025411 0.0 0.0
0.2687499999464675 0.0 0.0
0.2843749999108921 0.0 0.0
0.2999999999999999 0.01250000000785633 0.0
0.3 0.02500000002464271 0.0
0.3 0.03750000005532045 0.0
0.2999999999999999 0.05000000007786666 0.0
0.3 0.06250000001503192 0.0
0.2999999999999999 0.0749999999440657 0.0
0.3 0.08749999994628305 0.0
0.2843749999369807 0.1 0.0
0.2687499999742503 0.1 0.0
0.253124999894968 0.1 0.0
0.2374999998970008 0.1 0.0
0.2218749999180072 0.09999999999999999 0.0
0.2062499998726061 0.09999999999999999 0.0
0.1906249999261387 0.1 0.0
0.175 0.08564814808241838 0.0
0.1624999999105533 0.0712962962962963 0.0
0.1499999998834483 0.07129629629629632 0.0
0.1374999998590537 0.0712962962962963 0.0
0.125 0.08564814817593083 0.0
0.1093749999923767 0.1 0.0
0.09374999993596433 0.1 0.0
0.07812499987955196 0.1 0.0
0.06249999985295514 0.1 0.0
0.04687499989276568 0.1 0.0
0.03124999993257619 0.09999999999999999 0.0
0.0156249999764525 0.09999999999999999 0.0
0.0 0.08749999998398685 0.0
0.0 0.07499999993815812 0.0
0.0 0.06249999990588191 0.0
0.0 0.04999999987631621 0.0
0.0 0.03749999991857893 0.0
0.0 0.0249999999459339 0.0
0.0 0.01249999997735459 0.0
0.2916755192803398 0.0444286413942176 0.0
0.01123373010026124 0.05656579257309378 0.0
0.06505581699284294 0.0120319978191531 0.0
0.2241366848718956 0.08725419335063514 0.0
0.2449572970681577 0.01695096879176403 0.0
0.05816034988559085 0.0868458236722346 0.0
0.08565943093534552 0.08179966404873266 0.0
0.2167025871285981 0.01398873612290076 0.0
0.2528854372628974 0.08575406535805252 0.0
0.04052002317781458 0.0160558285703377 0.0
0.2903762091032446 0.06279742718804951 0.0
0.01217761879973836 0.03656032875061752 0.0
0.1365468450236317 0.06102962185472305 0.0
0.1209678437087845 0.06277072899560567 0.0
0.1501000886192668 0.03946459050807585 0.0
0.1004595026013334 0.01356406867880921 0.0
0.1970504210238387 0.08413522289674 0.0
0.272164801146214 0.01395293981576686 0.0
0.02803446664445509 0.08773355380856225 0.0
0.1110442013267114 0.07307928457908668 0.0
0.1052430311430736 0.05829340577133299 0.0
0.1879518393325965 0.02657806817881032 0.0
0.1881233490479941 0.03897587248277121 0.0
0.1698663399499115 0.06160935375018829 0.0
0.1808659501007224 0.06186071509775053 0.0
0.1138839698341271 0.0465295087647111 0.0
0.0980503398047626 0.04993648279264802 0.0
0.09171514118934765 0.06442259344076584 0.0
0.08570306772119901 0.05290714649993722 0.0
0.0777899335975017 0.06163072764607902 0.0
0.0709672873740254 0.04981260143912482 0.0
0.06843646017087655 0.06137081142683925 0.0
0.05680610916666716 0.04819051593349809 0.0
0.0547029631003882 0.06110743218070764 0.0
0.03998364630712602 0.04501228978843695 0.0
0.03922899349420111 0.06093891117332564 0.0
0.0884740589772825 0.03890529203218795 0.0
0.1266077416494897 0.03939298533519706 0.0
0.2008891529793176 0.02623854000651318 0.0
0.2004849187447618 0.03836449863509436 0.0
0.2120138618485989 0.03935921344969256 0.0
0.2111937360215087 0.048338581150442 0.0
0.2236887791008938 0.04172950155368266 0.0
0.2203165167433498 0.05683964430414238 0.0
0.2361464030858416 0.04316611839778998 0.0
0.2041119168465926 0.0641669792551309 0.0
0.2362672825959787 0.05758470402608088 0.0
0.2494677671953789 0.05731984190019922 0.0
0.2486379128261588 0.04314966128818264 0.0
0.2609192193018499 0.04338455577487645 0.0
0.2611901557392665 0.05716149336872264 0.0
0.04790764532619803 0.0320076568530239 0.0
0.03323776688786823 0.03592139568730389 0.0
0.1753675424085157 0.03978773332409204 0.0
0.2716240079051656 0.05807141715364594 0.0
0.06912148330339417 0.07277773038776877 0.0
0.1877073139036379 0.07239716666992166 0.0
0.04031223567607392 0.07446573783663996 0.0
0.2712438157612109 0.06733548449791414 0.0
0.1893808216370859 0.06206839036178451 0.0
0.2254146153198874 0.02898764206427604 0.0
0.2031120018256631 0.01335778989512454 0.0
0.02416537901343509 0.04763552900881249 0.0
0.229051924970079 0.01673191601718284 0.0
0.2577039304165351 0.01478325644171959 0.0
0.2140471719248915 0.08762685443814155 0.0
0.07981031847100392 0.01274801376904016 0.0
0.07817979715340087 0.02524600202446138 0.0
0.0642396777239084 0.02356926719248623 0.0
0.1039870767306551 0.08321774179220123 0.0
0.05508037525031835 0.01172784626119435 0.0
0.2729039525266626 0.04521920430148615 0.0
0.2233678900712622 0.07378671667114325 0.0
0.109756568943885 0.02354657602939386 0.0
0.1151157519688004 0.03263440352722224 0.0
0.2511182866812341 0.07153152920719841 0.0
0.2700840558926672 0.08318448447757495 0.0
0.237871793943988 0.08643836172079264 0.0
0.02776187571333655 0.01321266720833604 0.0
0.2365658054231832 0.03022669675932721 0.0
0.2761474200211546 0.03044007696005905 0.0
0.1378011012048194 0.03938866552156771 0.0
0.1496139843758481 0.05023332484854613 0.0
0.2887960264306315 0.02591119042229262 0.0
0.09671685881331857 0.0748788683619199 0.0
0.01230390563622119 0.07596617486249123 0.0
0.02569127995396902 0.0753226138292391 0.0
0.2886173459494003 0.0742770560435487 0.0
0.01170855926727919 0.04822329742659599 0.0
0.01284629953719258 0.02469489437124131 0.0
0.2912608766487568 0.05450140283147903 0.0
0.2477774184379294 0.02990322612120815 0.0
0.1494457842205774 0.06086559354631122 0.0
0.1619147053726652 0.05080566197360818 0.0
0.1371121032624937 0.0502530294536025 0.0
0.1614223560840126 0.06123382915688524 0.0
0.1893060179634759 0.05095340989620058 0.0
0.1246850857780808 0.04967935301665587 0.0
0.04325789842823679 0.08731467038536063 0.0
0.07279904742763867 0.08558189069468596 0.0
0.05556718531877672 0.07384374346587043 0.0
0.01151363488386111 0.06746407082683695 0.0
0.1016596541585397 0.02936314554848434 0.0
0.1959557892139646 0.07348551463980388 0.0
0.02422714246473133 0.03632633702278554 0.0
0.286321920575529 0.01327666922757847 0.0
0.02175906218568906 0.06149919385006669 0.0
0.1868830594094429 0.08010282965349944 0.0
0.02522410179061248 0.02536710970695722 0.0
0.2844098672283083 0.03837636217793911 0.0
0.2370986301916891 0.07224539223189788 0.0
0.1754314365820072 0.05349178496779237 0.0
0.03652107841089732 0.02784470965215479 0.0
0.1152799831897581 0.08703489668906185 0.0
0.08095064875963073 0.06967186161492661 0.0
0.0746905008722657 0.03758333429160222 0.0
0.2634010028602374 0.06956561221532644 0.0
0.1625282014167449 0.03984517596215104 0.0
0.2368570325624483 0.02070095711698371 0.0
0.09212892937935634 0.02721899302767055 0.0
0.2137039653224855 0.02721742933354059 0.0
0.1891263226310603 0.01358697766761044 0.0
0.1109290514172466 0.00881849013571737 0.0
0.1031052538209081 0.03968440453945361 0.0
0.1183289571062205 0.03946850062702563 0.0
0.06074395101808389 0.03537976664600476 0.0
0.2105212290771928 0.07806542801218883 0.0
0.2908574004142144 0.03708541321092165 0.0
0.2812034929261527 0.0605993649036981 0.0
0.2844774178150694 0.04826122972191007 0.0
0.01404152718301483 0.01253956835412531 0.0
0.2862226227228306 0.08659443068508382 0.0
0.01396995022225979 0.08776072706698197 0.0
0.2603516286273134 0.02950401311455951 0.0
0.2017835659856035 0.04999206882260125 0.0
0.104644641148442 0.06922118591179235 0.0
0.05208802431976942 0.02026111265382471 0.0
0.1882090963873271 0.09113581867190315 0.0
0.2781749076389991 0.07132146474253191 0.0
0.1168689878663016 0.07724336606192178 0.0
POLYGONS 171 855
4 164 119 163 69
4 178 70 163 119
4 133 83 203 177
4 152 126 170 65
4 32 147 169 31
4 162 121 164 69
4 120 167 80 171
4 68 128 197 155
4 181 117 175 157
4 189 132 131 179
4 120 171 45 8
4 31 169 30 5
4 139 180 140 72
4 153 172 168 75
4 121 150 170 99
4 83 133 148 199
4 125 25 26 71
4 43 44 201 80
4 51 70 148 133
4 128 81 144 197
4 19 2 138 137
4 142 73 176 172
4 43 129 67 42
4 85 86 117 3
4 140 39 40 72
4 142 13 14 73
4 14 15 66 134
4 43 80 190 129
4 99 98 96 97
4 81 128 28 29
4 51 52 163 70
4 130 131 132 66
4 128 68 27 28
4 162 69 53 54
4 118 114 113 135
4 108 106 124 143
4 14 134 200 73
4 110 108 112 111
4 107 110 174 136
4 180 122 202 140
4 79 130 16 17
4 49 10 50 177
4 72 40 41 141
4 71 26 27 127
4 111 112 113 114
4 20 21 78 145
4 145 101 2 20
4 130 66 15 16
4 141 41 42 67
4 127 124 184 71
4 183 79 137 166
4 110 107 106 108
4 179 131 183 100
4 97 96 94 95
4 78 146 158 145
4 8 46 159 87
4 48 9 77 76
4 98 99 170 126
4 47 48 76 156
4 156 159 46 47
4 95 94 92 93
4 107 105 104 106
4 84 89 161 77
4 145 158 161 101
4 103 86 85 102
4 99 97 164 121
4 108 143 155 112
4 54 55 82 162
4 146 156 76 158
4 156 146 157 159
4 86 160 175 117
4 84 91 92 90
4 158 76 77 161
4 8 88 123 120
4 127 182 143 124
4 60 61 75 152
4 34 35 74 154
4 59 60 152 65
4 70 178 91 148
4 189 115 200 132
4 107 109 198 105
4 69 163 52 53
4 119 164 97 95
4 61 62 153 75
4 187 138 188 89
4 35 36 151 74
4 92 91 178 93
4 25 125 185 24
4 117 181 22 3
4 170 165 59 65
4 159 157 175 87
4 98 115 189 96
4 126 152 75 168
4 24 185 23 4
4 18 1 19 186
4 13 142 194 12
4 55 56 196 82
4 59 165 149 58
4 106 104 184 124
4 123 88 175 160
4 146 78 181 157
4 111 114 180 139
4 39 140 195 38
4 172 153 194 142
4 72 141 174 139
4 150 82 196 149
4 112 155 197 113
4 138 2 101 188
4 149 165 170 150
4 84 90 187 89
4 98 126 168 116
4 29 30 169 81
4 17 18 186 79
4 109 167 120 123
4 193 135 144 173
4 136 174 141 67
4 27 68 182 127
4 34 64 191 33
4 84 199 148 91
4 12 194 63 0
4 38 195 37 6
4 56 11 57 196
4 71 184 102 125
4 51 133 177 50
4 109 123 160 198
4 79 183 131 130
4 107 136 190 109
4 102 85 185 125
4 86 103 198 160
4 98 116 176 115
4 144 81 169 147
4 95 93 178 119
4 67 129 190 136
4 111 139 174 110
4 21 22 181 78
4 118 122 180 114
4 8 87 175 88
4 100 92 94 179
4 92 100 187 90
4 179 94 96 189
4 66 132 200 134
4 103 102 184 104
4 143 182 68 155
4 195 140 202 151
4 193 173 191 64
4 3 23 185 85
4 79 186 19 137
4 147 32 33 191
4 44 7 45 201
4 104 105 198 103
4 89 188 101 161
4 135 113 197 144
4 176 116 168 172
4 150 121 162 82
4 137 138 187 166
4 62 63 194 153
4 36 37 195 151
4 58 149 196 57
4 77 83 199 84
4 77 9 203 83
4 34 154 193 64
4 80 167 109 190
4 74 192 193 154
4 183 166 187 100
4 118 192 202 122
4 192 74 151 202
4 135 193 192 118
4 9 49 177 203
4 144 147 191 173
4 80 201 45 171
4 73 200 115 176
CELL_DATA 171
SCALARS Von_mises double 1
LOOKUP_TABLE default
10121504.625312302 10826560.00919605 10813254.749165783 9260597.12065874 9999748.4339415 9970419.854318516 12137311.885720352 10195114.04121805 18796239.599505737 11613387.702779848 13321972.179309528 10002154.255380254 10120960.645435479 9440364.530270437 10085985.34931759 13149789.322342552 6624252.4847318055 3285845.649323229 8714821.020040156 10069327.119745342 13921045.042767106 9954979.061860073 6552200.820511079 16746127.593167305 9788434.979516638 9498521.160052795 8869594.91601182 8079368.983772967 11085804.994344158 9813013.447065584 7278098.807477711 9961952.295415219 9442606.413891898 9058280.484937819 10481798.213508967 12128275.88283174 9536629.907651803 11600065.681775065 12140228.305959461 10137149.63754697 6711242.744521339 815174.9020221591 9323733.57553802 8279533.713612485 10895954.952064542 23504500.240237813 26494296.743518673 8030429.864306151 8318984.050903903 10882147.877793277 12794970.207856752 12751391.357054593 13000399.274440452 12178671.68478984 21922886.762643382 27643263.882993415 25070895.427857745 10109373.033684444 23557524.07158465 23516469.400358133 13568900.526591277 14183632.616364583 16818935.8980577 18729231.56395782 15127693.996271325 10695570.071598701 11311770.952758351 9443801.280490564 22018124.09660858 22177386.676876616 17059942.82290477 15747610.993930114 18982428.022870835 16245452.3670908 10840753.007435879 8561352.020557813 10051640.655560674 8530121.275666349 12395219.297348456 10720439.961185403 14847484.629541134 8286673.453430331 11444023.70740678 8725529.762284838 16723079.289463133 10027810.812188717 13755595.441486897 4086347.4383308147 25476607.865529113 8864322.78870717 19212079.885395482 11186538.346543984 9320923.596453102 269270.94847341307 846571.7126127838 9807940.043607816 9801754.205789164 8722549.352197785 12959936.757424682 17583493.993857346 22109086.7758303 10648005.944537347 9972790.274952991 9836176.030333046 10192798.24896933 9864273.526715366 10716205.565177474 16491451.801518705 9451623.642351957 16981203.640748363 10053126.286280356 9973617.808045737 2943737.852294909 15426563.827100549 10195960.83909961 10356765.018904861 9451373.85610124 10049453.410898082 14796756.651227785 10570874.668427026 10003216.055528045 10571653.911729913 10841718.627882974 3534819.779899426 16543154.409837848 9998142.14557442 13242917.366570309 10845693.963107137 16503474.657169644 10456078.58727513 10022427.274977213 12288112.01884313 10257536.07685721 11168535.906067358 23425922.393146984 10367008.433570854 18611732.739036743 13731716.060663855 15455012.982031466 12297789.672331838 9792480.053435892 13958026.216061395 10482316.07110899 10000356.245004648 10108917.059109313 11050579.012882993 5175334.074201068 10028552.640766466 251319.82374399315 15360406.352742657 17321760.30534141 10356366.255200356 9961314.120777002 9941042.395416219 15644542.273227211 9142205.686082749 9997524.95921744 9147660.36601256 17051299.77013681 16451269.791024283 10084605.915099774 12250014.585646221 10115617.447488034 14435142.26912559 10194114.194163889 10094179.885231273 10238196.423030525 10095503.080210341 10079099.023398418 5099148.71278909 10186516.126568666
SCALARS Stress double 1
LOOKUP_TABLE default
9588798.138722502 -696992.005679365 -1053674.939170287
9854438.007986648 -1072588.9063993224 -1671750.1140196489
7977969.928760892 1413686.6608619266 -4566483.467618206
9829184.256644635 1271569.531889819 -95565.03846791892
9990090.318947304 -19196.683321307737 -17502.842971020902
9752742.802213065 -334102.34320950875 -554749.5851261689
9879826.84243589 186174.1724623178 4143592.2071998203
9918036.286403487 -455513.78350244934 -531542.251167992
20405848.650357485 3983206.0990167186 -878395.1110222152
10720729.847568357 -1306073.2142287241 1187271.4009747976
9828066.209665773 3991020.863632922 5892928.730908807
10000624.23513949 -3045.188161702035 6870.231937115751
9918150.443478895 -352308.97832106345 385469.886930597
9933945.715690982 1219317.6214053761 595288.3283053535
10199559.438187808 289241.8974332801 -433038.40598621056
11216013.142934179 -418805.306738476 -3752567.329614058
6052267.724234988 -212072.1652671786 -1405024.8220016917
2284961.649204513 546031.3631863383 1474815.5102024905
7527543.046901796 -330500.54762114526 -2358467.961562726
9934546.918690804 -246313.00375487076 -250631.18751457354
11452190.677932939 3599055.7268329826 5504746.257499524
9989807.901027255 125607.42534037479 425974.58744165185
6013474.05523827 -287533.6586645381 1285523.703661962
16998757.714045808 2494214.638574055 -3036031.9064241904
9751190.084809773 -65814.8935497888 164970.84641838734
9484240.764438868 -22459.14979878044 138526.71542679705
8799993.221815621 -100222.72579308788 335573.82085287536
7150128.338934999 -317811.16308889183 1981453.4542178514
10773173.930113118 -597316.8675383289 -118335.53781570795
9775885.517078819 -67137.44275309877 -148839.82304863058
6632665.082533025 -381077.9896864364 -1449792.2890558145
9254935.052303992 -724376.0662592315 1455781.185677941
9323871.754866488 -179753.6055846749 -416301.3579160628
8989036.7371829 -113308.00086287435 -269750.12879135524
10210301.254269795 -523327.7033415837 14568.171572832189
11196835.501707092 -1466828.0619286334 -1024781.8557829192
9439987.644016966 -158950.50679838835 320513.75036928285
10914470.085755967 -1267062.534869587 19174.355681096713
11170336.051661916 -1502935.2743059944 1089591.5591195235
10021209.052889789 -218773.35687056612 179755.91433904035
6174208.437359502 -286328.0617970135 1300012.365833073
-377701.6608960202 345268.3906385044 301237.9292575126
9238922.910242574 -118581.02432740397 393568.6490312628
8002858.37708198 -232499.86075533665 -929196.1880476818
10454013.842685718 -835718.5594523363 11401.675871126054
23759192.09252472 613073.6188444494 847072.8557237373
27052201.204586916 4220580.058086342 4707754.412487023
7868865.73541429 -124020.04650739208 725138.5562223808
8135446.93098812 -159620.73164651686 751871.9090604038
9783804.28448563 -1019198.9115601678 -1973820.918763944
10954009.314092735 -398405.8612794375 3614695.645148453
11768803.561657533 -1778321.8927865212 -26422.767455905763
11758338.155931195 -1639413.2507373444 1711472.4576094428
11394066.414250622 -1425876.0224749865 -268108.20173401857
23104316.841024164 2684709.9529197244 735805.4916107974
28046357.157968823 3169049.5059577897 4335485.662784303
25892902.695723426 4972155.37360958 -4550772.599678486
10264093.255972859 320808.039564066 -112099.06925152587
23771481.400045805 533726.9961530995 -871058.6061224
23738138.378289547 519625.3535456866 728021.8473015034
12504903.843169507 -1857105.9637277236 -597401.9613037377
13035336.01547963 -2049929.313528555 -332526.4697488982
17688572.449523013 1982022.8427459926 -611487.1332264803
20305674.125752013 4089503.9005278256 1262247.2899286458
13840210.896950798 -705967.7397497991 -3001474.9218009203
10397956.055742618 -509162.7082798414 -491335.21819077764
10674835.0920599 -1095195.6430018754 -609254.0427868303
9434310.253592761 -15544.711353494875 -103726.23677610721
23243295.481688894 2858727.8400934977 -969696.6724795616
23243124.61719432 2384744.7976533775 667220.7549250531
18098022.991820488 2354358.723553963 -435678.0994476928
14624214.745886937 -1932730.5579284779 -840531.7657485707
20446761.276388805 3708478.2448056177 -1202232.0114221566
16429895.206121676 1963205.866964961 2730955.602804507
10093070.629815582 -922087.8440776239 -1353379.3876094706
9464382.062575612 2293260.992131288 236271.60515466903
10005203.646060133 -92186.50714662965 13375.847192242096
9473044.080280317 2413724.7489123475 -145669.2729438743
11013669.488889392 -1395298.618710808 -2238029.6213935916
10241821.822581453 -758965.3092837494 749155.7265736901
13563744.03625339 -2181772.619101592 840537.6119284738
8112633.980964929 -178038.03948610398 -677759.008826564
10759895.759693023 -1108182.7049601 -824282.0230541031
9549974.495874483 2252998.0659385114 676493.5438248331
16609436.657072145 412161.568176544 1867608.9131297404
9998011.251782058 -59119.96565648496 26978.02878009927
12459470.55218905 -2032401.957989917 -1228100.083375531
3170461.5144082964 461642.01936018444 -1622437.8852193295
26181580.689948875 4452393.303078021 -4484390.308327585
9615851.347005973 1849789.7403416894 -398832.65393971157
20719738.61735167 4173184.048278225 1717387.8161388088
10729721.545588965 -832065.6569848381 361270.75174283475
9892178.378250306 1298650.1706534512 247931.7763043476
189270.5811526756 266341.18100358825 73385.77568110613
761911.5549648564 226987.79925294907 293027.6511891807
9827848.977858307 60450.47772043935 257886.45617425116
9814949.553097287 43969.87322730296 -238592.76231782587
9566629.691476077 2361390.537088317 -724993.5871725135
11687446.867906952 -1750898.8596859341 -1615999.407569162
18139280.63162709 1347341.3063572447 960942.708295079
23300372.254255004 2694807.4008853296 -690989.5176775779
10269244.406295469 -690540.6981443237 343740.3385989014
9953555.3280216 -37759.33310980108 44784.00650249974
10155613.077363404 883610.2920938911 776041.0238235117
9806606.645179935 -559256.2399280982 801338.2037086908
10170110.262606628 849294.5328751381 -772197.5777995513
10314962.82242085 -729060.9660548094 -359090.06987940776
17259169.16244945 4083965.6692837253 3049379.2316734656
9921944.201791959 1184261.219636633 -641849.3692549452
16321260.726357287 -1249869.556580387 73267.94542680144
10266851.416310156 461479.0431591936 246362.86509437812
9957097.236375106 -32540.50760835999 -37411.77767075175
2489175.1396545772 509516.99346424465 1076765.0833079233
13954917.00347341 -730526.6221473879 3291962.7079304922
10068227.843139157 -249874.5725418724 -58235.44318456121
9654373.724753845 -766729.0976476623 1421910.3202007941
9219229.025548514 -270239.434118416 -768083.1889955763
10004218.288856992 -89815.42414476139 -13296.208050667548
13379873.544044094 -1412163.6645695283 -2518876.3281853828
11054107.194575194 1891250.7983319042 1514305.6561593758
10000806.323763717 -4804.527601625879 -6635.626953567426
11061147.796419138 1911917.0110280726 -1516953.7272197139
9250145.430290489 -866119.4241712787 -2781832.65936625
2554684.852500719 544025.9703454727 -1534317.0934946765
15908546.215950115 -1012625.8761478688 1073824.6920093803
8638811.117767815 -728055.680989481 2484229.4746886585
11964828.976120524 -1564752.4835871311 1918965.1515877156
8651875.626973469 153044.73159296467 -3832963.4736062284
16000989.61509016 -841758.374196328 -847640.437362706
10349211.978713363 -170675.91161906498 377668.014317904
9958572.004417693 -123974.9995856789 -92930.71682968494
11285236.939940738 -1512569.591300785 -1194926.94372606
9241706.200327119 -773928.4428781021 2004705.1612818835
10552824.83231597 -1050514.8265030573 628384.7003842286
23700069.62006738 646694.2856316483 -814253.455013786
10128618.30002751 -451188.17476703157 193624.7412961981
19975106.67275008 5537769.3415872315 3018959.699866486
12541273.827198742 -2081797.7800836952 527319.8750499086
14340631.034120059 -1959658.4116275816 648261.3911250603
11468600.051008752 -1476555.3284945227 444449.3001151735
9448868.383137533 -467357.6104297038 811814.4677714634
12477379.7880113 -1595253.2484458857 -2358818.624395767
10001234.976607502 -705184.2890014792 -876403.7311160371
9937045.051715828 -122304.4251472699 103211.2914530164
10023516.333653517 -168464.83102280556 -27892.84399048214
7551471.181819327 3771357.70567051 -5142850.687984407
3222183.821215671 1306124.5671876513 2510260.6946793287
9998206.063143233 -60229.40536035422 -25364.019308622548
100001.32276615377 98342.11906864004 -133322.36478964728
14177848.627544085 -1995252.4707361748 -941854.8525849896
18647917.49347965 3129286.0913351257 535658.6709726211
10123624.315959807 -442370.1592262052 -175567.71038427157
10147760.49183292 454308.69753490685 467102.9409994897
9934399.807592338 37713.88985910546 -410392.8577365377
14092121.833580872 -1090218.2425852108 3141747.9768507686
9794733.198312908 2126190.5777952983 1147157.2757149036
9989956.322130367 -15048.896213144526 15424.082472477352
9802972.80963235 2147886.6453366573 -1158112.200482325
16250349.120645802 -141703.32734790663 -2848986.307107128
15580130.452371633 2254987.8104728926 -4395143.041071756
10018495.322523778 -130945.57858420971 -1083.8715615285744
10411666.327354021 -903273.5819429181 3237260.9479336115
10028246.158540582 -172251.0695220514 31351.610537431327
13056425.631455945 -1526833.4029130328 2283044.3887602286
10050934.650241438 -277486.08732796216 104377.20294610655
10015194.633231323 -154789.24551870057 68653.43490577856
10082196.844228633 -305070.8339827707 19325.09065979522
5394221.301995371 4939868.637562534 -5002199.565026723
10005455.690419987 -144169.14971372765 -72642.42882737426
3042841.894494829 1896664.498756324 2511065.1641630726
10006013.374868594 -290609.16604355664 466374.04484474217
SCALARS Strain double 1
LOOKUP_TABLE default
4.710526798281881e-05 -1.7180920419692863e-05 -1.3170936739628588e-05
4.892410903801175e-05 -1.936980917690056e-05 -2.089687642524561e-05
3.6316653512030355e-05 -4.710116912338176e-06 -5.7081043345227565e-05
4.542169902441197e-05 -8.063393005305632e-06 -1.1945629808489866e-06
4.805696790357547e-05 -1.4501075860603361e-05 -2.1878553713776128e-07
4.737006492873037e-05 -1.5672717230160712e-05 -6.934369814077112e-06
4.7230647070659593e-05 -1.3354682116675236e-05 5.179490258999776e-05
4.833985779545299e-05 -1.6494830141459112e-05 -6.644278139599899e-06
9.236003279159842e-05 -1.028148315428138e-05 -1.0979938887777692e-05
5.3425729864600836e-05 -2.1741789271630922e-05 1.4840892512184967e-05
4.149403822392258e-05 5.012504811217259e-06 7.366160913636007e-05
4.808431630571154e-05 -1.4438617589920906e-05 8.587789921394689e-08
4.8191553543150065e-05 -1.5998817843099675e-05 4.8183735866324626e-06
4.6000723217641204e-05 -8.465702371643839e-06 7.441104103816921e-06
4.861916763922031e-05 -1.3320316990495494e-05 -5.412980074827632e-06
5.4527186225748663e-05 -1.8190429084705426e-05 -4.6907091620175724e-05
2.940331429718818e-05 -9.74881001220036e-06 -1.7562810275021147e-05
1.0197847308887553e-05 -6.704669787260358e-07 1.843519387753113e-05
3.6666794284558363e-05 -1.244597818121002e-05 -2.9480849519534073e-05
4.8117503941429155e-05 -1.5512870573856304e-05 -3.1328898439321693e-06
4.986766326866849e-05 7.855698242937563e-07 6.880932821874405e-05
4.7846758045313196e-05 -1.3804494927729817e-05 5.324682343020647e-06
2.9325644965565538e-05 -1.0055653246327016e-05 1.6069046295774527e-05
7.81273717426615e-05 -1.2526022479036958e-05 -3.795039883030238e-05
4.697564688882072e-05 -1.438063422592654e-05 2.062135580229842e-06
4.562970437201204e-05 -1.3787170091973274e-05 1.7315839428349628e-06
4.245221172862283e-05 -1.317413794393161e-05 4.1946727606609425e-06
3.4833998499334935e-05 -1.1840623388314382e-05 2.4768168177723145e-05
5.265562014603181e-05 -1.8409947339289733e-05 -1.4791942226963493e-06
4.7096282451465135e-05 -1.4422611047484347e-05 -1.860497788107882e-06
3.243744461268729e-05 -1.1398449588684346e-05 -1.812240361319768e-05
4.553965323164309e-05 -1.6831041259377068e-05 1.8197264820974257e-05
4.5085566521836014e-05 -1.431209198098376e-05 -5.2037669739507864e-06
4.3379947776162314e-05 -1.350970683662377e-05 -3.3718766098919397e-06
4.984278637150131e-05 -1.724239461356982e-05 1.821021446604023e-07
5.5946557309065774e-05 -2.3201339963657503e-05 -1.2809773197286491e-05
4.561381151950232e-05 -1.4379551923093644e-05 4.006421879616036e-06
5.430090791450404e-05 -2.183367096440566e-05 2.396794460137089e-07
5.587123381708517e-05 -2.3336711970214272e-05 1.3619894488994045e-05
4.8494428172841136e-05 -1.550546188816107e-05 2.2469489292380044e-06
3.0096667576435606e-05 -1.0281685543292615e-05 1.6250154572913414e-05
-2.313856625421017e-06 2.2047061966697624e-06 3.7654741157189078e-06
4.4588928930484604e-05 -1.3895470660577774e-05 4.919608112890785e-06
3.8810616996675874e-05 -1.266037198980736e-05 -1.1614952350596024e-05
5.146504524289145e-05 -1.90957822704714e-05 1.4252094838907562e-07
0.00011334264426380475 -3.132059619669696e-05 1.0588410696546718e-05
0.00012397128455365875 -1.8726347611969872e-05 5.884693015608777e-05
3.800996033349283e-05 -1.194557580351769e-05 9.064231952779761e-06
3.9342947838856126e-05 -1.2501225052610351e-05 9.398398863255047e-06
4.850751902862347e-05 -1.9011250946662774e-05 -2.46727614845493e-05
5.323813015613734e-05 -1.7714464689938737e-05 4.5183695564355656e-05
5.914567369948794e-05 -2.552386039078741e-05 -3.3028459319882203e-07
5.8895010245924996e-05 -2.4840936045753382e-05 2.1393405720118038e-05
5.683571740862077e-05 -2.3288922820914297e-05 -3.351352521675232e-06
0.00010720626853436657 -2.0416274516286177e-05 9.197568645134966e-06
0.000130267511087411 -2.5215661737657958e-05 5.4193570784803775e-05
0.0001173137311713488 -1.344093959186273e-05 -5.688465749598108e-05
4.888389828895981e-05 -1.3261634313595153e-05 -1.4012383656440732e-06
0.00011351616971730706 -3.1719795307022325e-05 -1.0888232576530002e-05
0.00011337620563570117 -3.173950076894797e-05 9.100273091268794e-06
6.279824823215299e-05 -2.6964313060954687e-05 -7.467524516296721e-06
6.562651350739517e-05 -2.8656394798905974e-05 -4.156580871861227e-06
8.218252690720777e-05 -1.5983408135148608e-05 -7.643589165331003e-06
9.172511036343109e-05 -9.625953544220089e-06 1.5778091124108073e-05
6.755769816767183e-05 -2.3355918311706922e-05 -3.7518436522511506e-05
5.072454263570467e-05 -1.7444949639435706e-05 -6.141690227384721e-06
5.290093165846377e-05 -2.0661760435672335e-05 -7.615675534835378e-06
4.537968109134043e-05 -1.3681912439573672e-05 -1.2965779597013405e-06
0.00010762344773875407 -1.978010002121717e-05 -1.2121208405994522e-05
0.00010830625566297262 -2.205861820915826e-05 8.340259436563164e-06
8.36140162247803e-05 -1.47838854518855e-05 -5.44597624309616e-06
7.309631689069942e-05 -3.038459125814692e-05 -1.0506647071857134e-05
9.295297020647655e-05 -1.1661298740918383e-05 -1.5027900142776958e-05
7.615833387515474e-05 -1.4258474494574718e-05 3.413694503505634e-05
4.98543124184561e-05 -1.8990428043376436e-05 -1.6917242345118383e-05
4.219424886988571e-05 -2.625257820391324e-06 2.9533950644333627e-06
4.8234901914442896e-05 -1.4873786543099375e-05 1.6719808990302618e-07
4.2062147382724106e-05 -2.058598438325712e-06 -1.8208659117984286e-06
5.49627840120319e-05 -2.2593266660469356e-05 -2.79753702674199e-05
5.03341894969547e-05 -1.8420730077202815e-05 9.364446582171126e-06
6.835709529799937e-05 -3.0052383797969276e-05 1.0506720149105922e-05
3.925983361928251e-05 -1.2556866508536459e-05 -8.47198761033205e-06
5.332860851529352e-05 -2.0846881888788493e-05 -1.030352528817629e-05
4.2663822481216e-05 -2.942280205883811e-06 8.456169297810415e-06
7.925859705105374e-05 -2.1974372254543742e-05 2.3345111414121755e-05
4.815263096864905e-05 -1.4704439140341837e-05 3.3722535975124084e-07
6.283264970954819e-05 -2.7741553479070346e-05 -1.5351251042194142e-05
1.4576773599039622e-05 -2.3533482450110787e-06 -2.028047356524162e-05
0.00011945126297608402 -1.635615819185885e-05 -5.605487885409481e-05
4.3562088581266665e-05 -4.975796460385108e-06 -4.985408174246394e-06
9.359511251378945e-05 -9.820853542919597e-06 2.146734770173511e-05
5.278529443598278e-05 -1.94758755801035e-05 4.515884396785433e-06
4.568549676468399e-05 -8.024054532796347e-06 3.099147203804345e-06
5.258087829403803e-07 1.0075000320085849e-06 9.173221960138265e-07
3.3356500730239026e-06 -7.623400175518701e-09 3.6628456398647575e-06
4.716208574299122e-05 -1.3884154882870443e-05 3.22358070217814e-06
4.712383938042836e-05 -1.3944783618759053e-05 -2.982409528972823e-06
4.25875602420653e-05 -2.4451844728582027e-06 -9.062419839656417e-06
5.87149832971766e-05 -2.527467750027894e-05 -2.0199992594614528e-05
8.526479922942269e-05 -1.9684821553513855e-05 1.2011783853688488e-05
0.00010813427900956447 -2.065050132399602e-05 -8.637368970969723e-06
5.036733949874407e-05 -1.813131740400464e-05 4.296754232486267e-06
4.790809196131991e-05 -1.4537624670751354e-05 5.598000812812467e-07
4.755062495065017e-05 -1.0399392457284278e-05 9.700512797793895e-06
4.795376690941523e-05 -1.6832876122509997e-05 1.0016727546358635e-05
4.7669816840115804e-05 -1.058528147070601e-05 -9.652469722494392e-06
5.064269765498699e-05 -1.838245102298589e-05 -4.488625873492596e-06
7.708643971954005e-05 -5.258582112745713e-06 3.811724039591832e-05
4.5993585749523895e-05 -8.616932888946898e-06 -8.023117115686816e-06
8.02702961217856e-05 -2.9549268146574875e-05 9.15849317835018e-07
4.8694267804626916e-05 -1.2589309527566603e-05 3.079535813679727e-06
4.791759321470006e-05 -1.4517642685196596e-05 -4.676472208843969e-07
1.1232307892381267e-05 -1.140555521308309e-06 1.345956354134904e-05
6.814459129864244e-05 -2.3639431361487557e-05 4.1149533849131156e-05
4.876533757164288e-05 -1.5722802526363556e-05 -7.279430398070152e-07
4.752111756753917e-05 -1.761077507247027e-05 1.777387900250992e-05
4.471298488357711e-05 -1.4596192989341205e-05 -9.601039862444703e-06
4.8226744788944326e-05 -1.4860965917316629e-05 -1.6620260063334435e-07
6.636308963180266e-05 -2.6087142922032485e-05 -3.148595410231728e-05
5.041698055324818e-05 -6.8508719232723734e-06 1.8928820701992198e-05
4.808772924059714e-05 -1.4447338580436254e-05 -8.294533691959284e-08
5.0421022563032284e-05 -6.76166984566187e-06 -1.896192159024642e-05
4.572106373818208e-05 -1.750559160220397e-05 -3.477290824207812e-05
1.1497485872101331e-05 -1.0691321413689558e-06 -1.9178963668683458e-05
7.794391335958883e-05 -2.7813412216023576e-05 1.3422808650117253e-05
4.2582826067618545e-05 -1.5960091424614545e-05 3.105286843360824e-05
5.978007077498396e-05 -2.4779813348188887e-05 2.3987064394846446e-05
4.137481830526721e-05 -1.174287479086094e-05 -4.791204342007786e-05
7.814190926610125e-05 -2.712526566693931e-05 -1.0595505467033825e-05
5.000199400095713e-05 -1.574730531362055e-05 4.720850178973799e-06
4.805656011679518e-05 -1.4959358658225896e-05 -1.1616339603710618e-06
5.643753758332198e-05 -2.354875323693753e-05 -1.4936586796575752e-05
4.554752275572381e-05 -1.705019376430884e-05 2.5058814516023547e-05
5.22499003858985e-05 -2.0270972481720424e-05 7.854808754802857e-06
0.00011300991026143214 -3.1073685578791185e-05 -1.0178168187672324e-05
4.934603246373856e-05 -1.677775800372733e-05 2.4203092662024768e-06
8.804699937631688e-05 -2.1863589434509224e-06 3.773699624833107e-05
6.329717865973006e-05 -2.809701888578518e-05 6.591498438123858e-06
7.177177191157854e-05 -3.0105037124344225e-05 8.103267389063253e-06
5.726714735363994e-05 -2.3640073768255522e-05 5.555616251439668e-06
4.610132531858869e-05 -1.587508714120656e-05 1.0147680847143292e-05
6.228824885838974e-05 -2.5665707619467673e-05 -2.948523280494709e-05
4.909995318898052e-05 -1.7815167221075628e-05 -1.0955046638950468e-05
4.7950655669519275e-05 -1.4920278560875087e-05 1.2901411431627049e-06
4.843296049500173e-05 -1.5266921784225294e-05 -3.486605498810267e-07
3.0865691683260455e-05 7.239982457330346e-06 -6.428563359980508e-05
1.3607434860862384e-05 1.6320645231872599e-06 3.137825868349161e-05
4.815516771515067e-05 -1.471005396299675e-05 -3.170502413577818e-07
3.389359954113543e-07 3.2856597230189396e-07 -1.6665295598705909e-06
7.104050177290836e-05 -3.0041380091343276e-05 -1.1773185657312372e-05
8.514005608691882e-05 -1.1851390176484469e-05 6.695733387157763e-06
4.9309304633306094e-05 -1.6728160836606474e-05 -2.194596379803395e-06
4.813205712775214e-05 -1.2452016586610426e-05 5.838786762493621e-06
4.7707142503050995e-05 -1.4147144482781711e-05 -5.129910721706721e-06
6.93230158959444e-05 -2.556660958009362e-05 3.92718497106346e-05
4.4023442427761157e-05 -3.904948950473916e-06 1.4339465946436294e-05
4.8050341302857256e-05 -1.4480941311789685e-05 1.9280103090596692e-07
4.403176353861228e-05 -3.8125249882358063e-06 -1.4476402506029065e-05
7.833105826370276e-05 -2.4119269536257917e-05 -3.5612328838839104e-05
7.165208706360464e-05 -1.1630054448262485e-05 -5.4939288013396935e-05
4.8354706712014624e-05 -1.5079298919910303e-05 -1.354839451910718e-08
5.1358886547773546e-05 -1.935948788533233e-05 4.046576184917015e-05
4.846116095864039e-05 -1.529194671675109e-05 3.918951317178916e-07
6.497344063620124e-05 -2.6171928328604886e-05 2.853805485950286e-05
4.872202152134532e-05 -1.5830608088463432e-05 1.304715036826332e-06
4.8373227917725646e-05 -1.5189171324462007e-05 8.581679363222318e-07
4.891210622318974e-05 -1.6008316765631544e-05 2.4156363324744024e-07
1.8808945724647168e-05 1.5969241571941933e-05 -6.252749456283404e-05
4.831108863141399e-05 -1.5124066619421754e-05 -9.080303603421781e-07
1.189347377340352e-05 4.729865050037863e-06 3.1388314552038406e-05
4.852498136866183e-05 -1.582890951203911e-05 5.829675560559278e-06
POINT_DATA 204
VECTORS Displacement float
0.0 0.0 0
3.933613881844253e-06 -5.412194481502594e-08 0
6.654154638899481e-06 4.083114961959116e-08 0
1.326639672594188e-05 -3.0993656249765686e-08 0
1.608280587286638e-05 -2.7055778812467195e-07 0
1.9985516974388543e-05 3.354893149677342e-07 0
2.0206691439904684e-05 -1.1124825497745217e-06 0
1.6271249331473335e-05 8.9571027239192e-09 0
1.3361697201863814e-05 -1.7254871224211117e-07 0
6.751963776931597e-06 -1.3389625859678943e-07 0
3.896064344464453e-06 1.0888279820396518e-07 0
0.0 0.0 0
8.637662687366693e-07 4.763999062891357e-07 0
1.5756927383737774e-06 6.765484389949265e-07 0
2.2605260562625966e-06 8.082342469594696e-07 0
2.9139664518687804e-06 9.132118751577892e-07 0
3.4599937861967577e-06 9.998466748889383e-07 0
3.821217352412597e-06 9.965068282438522e-07 0
3.967620865090995e-06 6.747015331716641e-07 0
4.741594314869172e-06 -5.406525876374951e-08 0
8.545181500443607e-06 4.5893581827216977e-07 0
9.981909323275232e-06 5.36140897349615e-07 0
1.1414216329155965e-05 4.164363590245504e-07 0
1.528109844837462e-05 -3.0397750048945787e-07 0
1.6052692392032385e-05 5.269933805833064e-07 0
1.611817852943216e-05 8.236204140415317e-07 0
1.6490401028925853e-05 7.795931110619275e-07 0
1.7077428233976186e-05 6.682720244509841e-07 0
1.7752925526667942e-05 5.507573683193859e-07 0
1.8483491551344268e-05 4.6146043598442624e-07 0
1.9233262673503862e-05 3.926590085032244e-07 0
2.0030503445217945e-05 1.561139739665387e-07 0
2.0070468785661896e-05 -2.2767516654942998e-08 0
2.0103463449869617e-05 -2.0405628923898002e-07 0
2.013244748702109e-05 -3.886124871325377e-07 0
2.0158627299494785e-05 -5.730783970155988e-07 0
2.0180854300171315e-05 -7.542800159511865e-07 0
2.0196172596748686e-05 -9.331812412438961e-07 0
1.945444603232525e-05 -1.100421693394814e-06 0
1.870565311905783e-05 -1.1000918023162946e-06 0
1.7971851920572533e-05 -1.121280149220249e-06 0
1.728799857727615e-05 -1.168496630741378e-06 0
1.671834143668698e-05 -1.2134810609856387e-06 0
1.6372446523945106e-05 -1.1840261298439007e-06 0
1.6219166625831502e-05 -8.102414731555689e-07 0
1.5445853826592594e-05 4.722997107871583e-08 0
1.1487593008141561e-05 -6.080849174686661e-07 0
1.0059320624029181e-05 -6.704942566953287e-07 0
8.625984785646221e-06 -5.403676995891386e-07 0
4.674751295794083e-06 2.039404326143414e-07 0
3.937359252443864e-06 -6.654205598465675e-07 0
3.804936141789885e-06 -1.0191828845988905e-06 0
3.4552943881116052e-06 -9.98744062388727e-07 0
2.9103395791807886e-06 -9.154985305450945e-07 0
2.2617923794522907e-06 -8.069884630033324e-07 0
1.5762980493066959e-06 -6.757618632600369e-07 0
8.638550197116169e-07 -4.758340765045903e-07 0
0.0 0.0 0
0.0 0.0 0
0.0 0.0 0
0.0 0.0 0
0.0 0.0 0
0.0 0.0 0
0.0 0.0 0
1.9718089440586915e-05 -2.8630924579181936e-07 0
4.725034746846989e-07 -3.395205071663718e-08 0
2.9989471663140065e-06 7.764464351643211e-07 0
1.6689959755860437e-05 -1.0589634433449008e-06 0
1.74194088830901e-05 3.6739022477609037e-07 0
2.7015494361446996e-06 -7.100577892454416e-07 0
3.980294619460301e-06 -8.116688315370386e-07 0
1.6219660285759853e-05 6.574908804699627e-07 0
1.7952023351737844e-05 -9.186071064843184e-07 0
1.8871802204591445e-06 5.35612209459101e-07 0
1.969503549659921e-05 -5.604209566747419e-07 0
5.157331091990301e-07 7.29764158233655e-08 0
8.522195942824097e-06 -1.8528663032067782e-07 0
7.031678822124135e-06 -1.546259899708889e-07 0
1.001319920802945e-05 2.086051229604197e-07 0
4.353597882599572e-06 8.587521187515078e-07 0
1.5591884814674373e-05 -9.61745865164571e-07 0
1.870187893070127e-05 2.427977220515461e-07 0
1.316286188125283e-06 -4.7568493541828667e-07 0
5.60738374097327e-06 -5.198637774909692e-07 0
5.867391035995379e-06 -2.3694498113081936e-07 0
1.4334134895930694e-05 3.7858208496165735e-07 0
1.3687985940370414e-05 1.1357029082545886e-07 0
1.2184344445582563e-05 -1.6449061344632814e-07 0
1.3165468836202642e-05 -3.0315160066505315e-07 0
6.635401967219421e-06 7.802966132462673e-08 0
5.374085208724817e-06 7.718289850459562e-09 0
4.750621766916444e-06 -4.3601505868434897e-07 0
4.498725938043696e-06 -8.432395541759892e-08 0
3.9109937069317415e-06 -3.210113721136665e-07 0
3.549713675845038e-06 9.826965662195517e-09 0
3.366308645152462e-06 -2.817395613448593e-07 0
2.7306670288884586e-06 4.179931103946722e-08 0
2.6035717398390217e-06 -2.3002579765377267e-07 0
1.836348315421821e-06 8.089575339439522e-08 0
1.7989301826187223e-06 -1.7545041149654914e-07 0
4.5994751177232476e-06 3.380024801182185e-07 0
7.592754208325467e-06 2.3244258944496634e-08 0
1.5107061922700008e-05 4.900012978681831e-07 0
1.4665749614537152e-05 1.8079900772344018e-07 0
1.545103143232194e-05 1.2111797076924164e-07 0
1.533557124553632e-05 -1.4727606663063983e-07 0
1.6162897495934537e-05 4.019029741465821e-09 0
1.597654461120813e-05 -4.0512289299290046e-07 0
1.6890393900458003e-05 -8.730580626850616e-08 0
1.504186645884779e-05 -6.121820193611224e-07 0
1.6932858781245223e-05 -4.2544596358604887e-07 0
1.7647101111301266e-05 -4.245247635861674e-07 0
1.7570587423474995e-05 -1.3645522362311704e-07 0
1.8204171886159095e-05 -1.8331284787351853e-07 0
1.824904520451401e-05 -4.3130830163855526e-07 0
2.234374769243799e-06 3.314080872278578e-07 0
1.5000211915224916e-06 1.9741034275394396e-07 0
1.2574614291644182e-05 -4.889256136794495e-08 0
1.87713382919752e-05 -4.59097345644188e-07 0
3.308151629814313e-06 -5.423857124848114e-07 0
1.434317787769853e-05 -6.462286556801945e-07 0
1.8565970716060766e-06 -3.930037521441438e-07 0
1.8776759840751684e-05 -6.089046794241489e-07 0
1.388178928186363e-05 -4.463372779136522e-07 0
1.6387210725628804e-05 3.0553653671522345e-07 0
1.5742132783856548e-05 7.027843001239934e-07 0
1.0608533424887973e-06 2.4016612788665453e-08 0
1.6708410299979e-05 5.103653915754924e-07 0
1.8018621578825902e-05 3.1016266610272387e-07 0
1.6287812983960766e-05 -1.087702265078113e-06 0
3.6097687028881474e-06 8.664550092016501e-07 0
3.750626652523265e-06 6.398928369244208e-07 0
3.0268160064516484e-06 5.824651154086043e-07 0
4.606602787459878e-06 -7.788913250306711e-07 0
2.566436358913022e-06 7.069915628960689e-07 0
1.8805564333928807e-05 -2.500677853700652e-07 0
1.6409522279549004e-05 -8.220991694925021e-07 0
5.32501113889542e-06 6.697071670316206e-07 0
6.265815643406484e-06 3.707039373376156e-07 0
1.7803232629130584e-05 -6.920409059755894e-07 0
1.875862104877713e-05 -8.544684491043254e-07 0
1.727078894365916e-05 -9.84323995362604e-07 0
1.2966434604043986e-06 4.602404192038719e-07 0
1.696219881127312e-05 1.9424694323588307e-07 0
1.8934671346071378e-05 -2.4185546432574588e-08 0
8.638862761277835e-06 1.1753558952516791e-07 0
9.976177023595046e-06 -7.245124309340824e-08 0
1.9533885774821523e-05 -9.8143849982615e-10 0
4.723432184745427e-06 -6.983627826353e-07 0
5.283703946638632e-07 -1.4842972630325865e-07 0
1.1484807953480554e-06 -2.864789493729817e-07 0
1.9632149122366627e-05 -7.291896096672111e-07 0
4.925117955910113e-07 8.090496896076862e-09 0
5.522932191053701e-07 1.5054124730183793e-07 0
1.9720351974967663e-05 -4.372753221535472e-07 0
1.753671792721351e-05 1.2536507497477622e-07 0
9.971891046281711e-06 -3.5118174753854454e-07 0
1.1263056263272984e-05 -9.877593823431888e-08 0
8.69133734704221e-06 -4.620093402144691e-08 0
1.1319938576364466e-05 -2.8622518001538045e-07 0
1.3645821211430848e-05 -1.722241650821934e-07 0
7.56378296140429e-06 -2.5340219330564177e-08 0
2.0275924101115687e-06 -6.063921384930153e-07 0
3.3476310787309863e-06 -7.981671751157854e-07 0
2.6112433804864975e-06 -4.801122323283734e-07 0
4.878881259033922e-07 -8.965707102416744e-08 0
5.175060506914144e-06 5.755597121121054e-07 0
1.4911357590405644e-05 -7.805641641345678e-07 0
1.0671649841926697e-06 1.4522771570799837e-07 0
1.937659258068757e-05 1.9286935147492548e-07 0
9.475771217823273e-07 -1.0986984802883858e-07 0
1.4938032090177847e-05 -7.147713865678578e-07 0
1.1242099097478888e-06 2.745233214155191e-07 0
1.9352401269600288e-05 -1.7482032066859876e-07 0
1.7101850591389157e-05 -7.405068836258699e-07 0
1.2504241165333295e-05 -1.3903878978474877e-07 0
1.6668555761445092e-06 3.3415793891562563e-07 0
4.61735719074555e-06 -4.801981175571039e-07 0
3.98796998449921e-06 -5.365870460907119e-07 0
3.719659880269667e-06 3.3257123601431587e-07 0
1.8401273350663433e-05 -6.463008923872044e-07 0
1.1398026442729748e-05 6.207583122404796e-08 0
1.7031850384499038e-05 3.7176731481083526e-07 0
4.56264167660048e-06 6.534191014873945e-07 0
1.5785618267589095e-05 4.287153078954104e-07 0
1.5367539261428515e-05 5.074717157969853e-07 0
4.3302209963897935e-06 6.019964626467183e-07 0
5.6430637683319845e-06 3.1703674057234225e-07 0
6.842413476490932e-06 1.652910805497973e-07 0
2.916363383560746e-06 3.2814493409075e-07 0
1.5868756557610093e-05 -9.455701772043623e-07 0
1.9661541453816584e-05 -1.7394022557760424e-07 0
1.924603420064734e-05 -5.129023101776716e-07 0
1.937800597892599e-05 -3.277982346437304e-07 0
6.31689877569078e-07 2.6525612245688644e-07 0
1.953382576390181e-05 -9.07035230501069e-07 0
6.299384063177004e-07 -2.6710613999657914e-07 0
1.816186050584524e-05 6.014047865633995e-08 0
1.4627321635682691e-05 -1.7113863856689172e-07 0
5.441394094268062e-06 -5.175980258260725e-07 0
2.4276085186546214e-06 5.559655370243426e-07 0
1.580137356008563e-05 -7.228328634099082e-07 0
1.9121946717327988e-05 -6.758484154082662e-07 0
5.564113644613465e-06 -4.302129590171179e-07 0