# vtk DataFile Version 2.0
Really cool data
ASCII
DATASET POLYDATA
POINTS 197 float
0.0 0.0 0.0
0.125 0.0 0.0
0.125 0.03148148148148149 0.0
0.175 0.03148148148148149 0.0
0.175 0.0 0.0
0.3 0.0 0.0
0.3 0.1 0.0
0.175 0.1 0.0
0.175 0.06851851851851852 0.0
0.125 0.06851851851851852 0.0
0.125 0.1 0.0
0.0 0.1 0.0
0.01562500001914041 0.0 0.0
0.03125000004302709 0.0 0.0
0.04687500009029187 0.0 0.0
0.06250000012942511 0.0 0.0
0.078125000069625 0.0 0.0
0.09374999998136457 0.0 0.0
0.1093749999689982 0.0 0.0
0.125 0.01574074077310268 0.0
0.1374999999728949 0.03148148148148149 0.0
0.1500000000514996 0.03148148148148149 0.0
0.1624999999674739 0.03148148148148149 0.0
0.175 0.01574074070364713 0.0
0.1906249999454511 0.0 0.0
0.2062499999464675 0.0 0.0
0.2218749999813653 0.0 0.0
0.2375000000284603 0.0 0.0
0.253125000025411 0.0 0.0
0.2687499999464675 0.0 0.0
0.2843749999108921 0.0 0.0
0.2999999999999999 0.01250000000785633 0.0
0.3 0.02500000002464271 0.0
0.3 0.03750000005532045 0.0
0.2999999999999999 0.05000000007786666 0.0
0.3 0.06250000001503192 0.0
0.2999999999999999 0.0749999999440657 0.0
0.3 0.08749999994628305 0.0
0.2843749999369807 0.1 0.0
0.2687499999742503 0.1 0.0
0.253124999894968 0.1 0.0
0.2374999998970008 0.1 0.0
0.2218749999180072 0.09999999999999999 0.0
0.2062499998726061 0.09999999999999999 0.0
0.1906249999261387 0.1 0.0
0.175 0.08425925920708204 0.0
0.1624999999105533 0.0685185185185185 0.0
0.1499999998834483 0.06851851851851853 0.0
0.1374999998590537 0.0685185185185185 0.0
0.125 0.08425925927755519 0.0
0.1093749999923767 0.1 0.0
0.09374999993596433 0.1 0.0
0.07812499987955196 0.1 0.0
0.06249999985295514 0.1 0.0
0.04687499989276568 0.1 0.0
0.03124999993257619 0.09999999999999999 0.0
0.0156249999764525 0.09999999999999999 0.0
0.0 0.08749999998398685 0.0
0.0 0.07499999993815812 0.0
0.0 0.06249999990588191 0.0
0.0 0.04999999987631621 0.0
0.0 0.03749999991857893 0.0
0.0 0.0249999999459339 0.0
0.0 0.01249999997735459 0.0
0.290587610397831 0.0458200682273911 0.0
0.00944806791514387 0.05414102438490007 0.0
0.07053942736381535 0.01774816249139934 0.0
0.2284443487538274 0.08371396286124738 0.0
0.2436427070176897 0.01375767679932664 0.0
0.05754655152322178 0.08698878289147804 0.0
0.08336833091392558 0.08349014689085481 0.0
0.2134599149674065 0.01726355554971932 0.0
0.2539269008739394 0.08631030023566405 0.0
0.04563342279231997 0.01369001994799811 0.0
0.2905923302126114 0.0630801530472673 0.0
0.009471460830420412 0.03698494395833315 0.0
0.1130589325201426 0.02420487301594196 0.0
0.1156539881225136 0.03969460962141452 0.0
0.1026582031945469 0.02944527615969059 0.0
0.09690716025139756 0.04263068318171648 0.0
0.1879877126149681 0.07624712446568725 0.0
0.1889609698347709 0.05703292101676868 0.0
0.201282510800096 0.07246095725208135 0.0
0.2061262864884982 0.05076654733991514 0.0
0.08834117465430588 0.03782129679119363 0.0
0.08867631718435331 0.05521416067654397 0.0
0.08011773768203428 0.04273543946594147 0.0
0.2136288348988151 0.06217556432730191 0.0
0.2257064779868051 0.05496225947038322 0.0
0.0739668757857402 0.06063154516597451 0.0
0.0682861013057018 0.04917122194647237 0.0
0.218990416336045 0.04412511439045579 0.0
0.2343883522865265 0.04953663370265918 0.0
0.2716144977615798 0.01268895577851358 0.0
0.02848682613598578 0.08728201165485547 0.0
0.1369047983121556 0.05851006249161734 0.0
0.1503195737421205 0.04084042959928638 0.0
0.112310964912714 0.07173127506114282 0.0
0.1881427053803061 0.02831560057778205 0.0
0.1733110894404468 0.05270702878675939 0.0
0.2327503905487245 0.06591604526936676 0.0
0.2452236059392678 0.05650168919442999 0.0
0.2473431827147391 0.03987368832355559 0.0
0.2607673496274044 0.04114506871705689 0.0
0.06315817349916344 0.03620401280176718 0.0
0.05056191998241368 0.04099246284155568 0.0
0.05333377479929096 0.0592331730729149 0.0
0.03909955654902137 0.0583126685255768 0.0
0.1216192433769095 0.05739506219810082 0.0
0.2002489287402784 0.02678741368996205 0.0
0.2608265209820602 0.05604530566977817 0.0
0.03833825787627562 0.04324091077258462 0.0
0.02749765899596567 0.04246640573418578 0.0
0.2723614324553442 0.05735274098582625 0.0
0.08968587227505707 0.07002956452545371 0.0
0.08717164229308778 0.02841304299854835 0.0
0.2136262083201635 0.07744180577640493 0.0
0.1302124914901232 0.03958067735364329 0.0
0.1612195155893812 0.05977811086292178 0.0
0.02847448250797612 0.03326389528170064 0.0
0.2713505489055833 0.0666660603051883 0.0
0.07845949152600258 0.07183268377381914 0.0
0.09905823769774204 0.08299056888354832 0.0
0.2021895691401282 0.01420541138395635 0.0
0.2320219575600423 0.0176186393888544 0.0
0.2376676046160596 0.02675045188747955 0.0
0.09764052550970809 0.0139770553561384 0.0
0.2032570751551318 0.0871372954106967 0.0
0.257190281033239 0.01306798875138086 0.0
0.04318150409395138 0.0870499144729203 0.0
0.2762429676274387 0.04261058212404521 0.0
0.02374807941411261 0.05720553714145876 0.0
0.2224918096796779 0.02562650375821706 0.0
0.27016383940565 0.08304871976319918 0.0
0.2438180799650249 0.08720559978700505 0.0
0.05553955595883206 0.01302011291558074 0.0
0.02966704651271799 0.01696916854741743 0.0
0.1034054223694395 0.05993371278492612 0.0
0.06525461541618208 0.06477826206358916 0.0
0.2510018973397219 0.0727908854979935 0.0
0.04746336954280832 0.02695564846650708 0.0
0.138651480876948 0.04012057982073508 0.0
0.1495781804510017 0.05923972731976151 0.0
0.1624338241980688 0.04140871492274942 0.0
0.0715517864867938 0.0862791136948508 0.0
0.02637525742543035 0.07358681713382408 0.0
0.2737395290086908 0.02630312901510894 0.0
0.2871405489484925 0.02551065608894203 0.0
0.01289586243612255 0.0744402824695231 0.0
0.2886368382653451 0.07409182831123787 0.0
0.008519770238304431 0.04460816303555407 0.0
0.01142147165028205 0.02601601191314979 0.0
0.2915235997291159 0.05540045529706697 0.0
0.01111459782965263 0.06208483169265674 0.0
0.2216094056868869 0.07253760567033322 0.0
0.07515519569705384 0.03114165526104686 0.0
0.2889135225153466 0.0378590571003152 0.0
0.05438664852161567 0.07373606039623357 0.0
0.2129431902149815 0.03346618883890151 0.0
0.2016251129434864 0.03851496813020191 0.0
0.1885542550025741 0.04124649510438458 0.0
0.1009754992896878 0.07099297305575351 0.0
0.2468569165413915 0.0267618792612002 0.0
0.108739030466228 0.04943504937855349 0.0
0.2392215439151144 0.07786560402988499 0.0
0.05898296286135164 0.02278386068243082 0.0
0.08347790465008567 0.01498358432934525 0.0
0.2166856519273221 0.0868179284968797 0.0
0.1114121094087757 0.01402324624244553 0.0
0.1892226502961411 0.08637573922316859 0.0
0.1121261204874662 0.06304529252552388 0.0
0.1702072008687329 0.05987346624263121 0.0
0.1113680160004596 0.08482745628485215 0.0
0.1889918817201004 0.01454014475845615 0.0
0.2088035561234104 0.02590659878449428 0.0
0.2631377174875207 0.06922433803338518 0.0
0.03608304130856954 0.03042486638584691 0.0
0.1266456360193468 0.0459503840405019 0.0
0.1750645466826172 0.04185596367951539 0.0
0.1379786066775398 0.04890264084647548 0.0
0.1498712853870685 0.05000008639788081 0.0
0.161597147300103 0.05083700484450259 0.0
0.06714756630581263 0.07369443704520914 0.0
0.2324124677477101 0.0373554077268309 0.0
0.09080074359219742 0.07949302725154783 0.0
0.286201286421211 0.0864359901626996 0.0
0.0138081840859584 0.01362513638327366 0.0
0.2857925544585027 0.01265246440467453 0.0
0.01423772277258978 0.08732419074472862 0.0
0.01825690340272405 0.03944317232279469 0.0
0.2817876332681612 0.06059687972842388 0.0
0.04063456393891306 0.07312660081632968 0.0
0.2597948369306531 0.02681770158652469 0.0
0.01411208231727258 0.04853395895433993 0.0
0.2859128750190673 0.05142392412254943 0.0
0.02183494293279828 0.02938754225795124 0.0
0.2781257926614912 0.0706799455952507 0.0
POLYGONS 164 820
4 155 66 166 115
4 154 67 167 116
4 131 145 148 153
4 130 146 147 156
4 77 2 117 177
4 162 102 183 125
4 108 170 137 163
4 140 176 136 73
4 139 175 133 72
4 69 129 191 157
4 181 143 178 99
4 144 70 51 52
4 123 25 26 71
4 26 124 132 71
4 97 170 108 9
4 82 116 167 127
4 78 115 166 126
4 124 125 183 132
4 133 39 40 72
4 136 13 14 73
4 175 120 196 133
4 176 119 195 136
4 113 110 103 130
4 112 111 107 131
4 93 128 28 29
4 94 129 54 55
4 128 68 27 28
4 129 69 53 54
4 68 124 26 27
4 73 14 15 135
4 72 40 41 134
4 104 90 106 105
4 101 102 103 110
4 105 106 107 111
4 20 21 96 141
4 47 48 95 142
4 141 117 2 20
4 46 47 142 118
4 21 22 143 96
4 153 65 193 131
4 156 64 194 130
4 52 53 69 144
4 101 100 88 92
4 85 114 121 89
4 89 138 106 90
4 90 86 85 89
4 129 94 145 191
4 128 93 146 192
4 48 9 108 95
4 85 79 163 137
4 86 155 115 84
4 2 77 78 76
4 8 81 82 80
4 91 88 87 83
4 183 91 158 132
4 86 84 79 85
4 87 88 100 154
4 90 104 155 86
4 49 10 50 172
4 23 4 24 173
4 154 116 82 87
4 81 83 87 82
4 115 78 79 84
4 81 8 171 99
4 109 123 71 174
4 15 16 166 66
4 41 42 167 67
4 60 61 75 150
4 34 35 74 152
4 179 95 108 177
4 44 7 45 169
4 18 1 19 168
4 72 134 164 139
4 73 135 165 140
4 98 160 178 3
4 34 64 156 33
4 60 65 153 59
4 159 158 91 83
4 35 36 149 74
4 61 62 151 75
4 101 92 183 102
4 85 137 161 114
4 98 109 159 160
4 161 97 172 122
4 109 98 173 123
4 22 3 178 143
4 70 121 114 184
4 124 68 162 125
4 51 70 184 122
4 33 156 147 32
4 59 153 148 58
4 68 128 192 162
4 89 121 182 138
4 29 30 187 93
4 55 56 188 94
4 70 144 182 121
4 13 136 186 12
4 39 133 185 38
4 101 110 175 139
4 105 111 176 140
4 78 126 168 76
4 82 127 169 80
4 146 93 187 147
4 145 94 188 148
4 67 154 100 164
4 66 155 104 165
4 106 157 191 107
4 81 160 159 83
4 15 66 165 135
4 41 67 164 134
4 38 185 37 6
4 12 186 63 0
4 56 11 57 188
4 30 5 31 187
4 81 99 178 160
4 51 122 172 50
4 25 123 173 24
4 78 77 163 79
4 127 167 42 43
4 126 166 16 17
4 71 132 158 174
4 101 139 164 100
4 105 140 165 104
4 8 46 118 171
4 9 49 172 97
4 3 23 173 98
4 17 18 168 126
4 43 44 169 127
4 113 120 175 110
4 112 119 176 111
4 2 76 168 19
4 8 80 169 45
4 177 117 141 179
4 96 180 179 141
4 95 179 180 142
4 142 180 181 118
4 88 91 183 92
4 180 96 143 181
4 159 109 174 158
4 185 133 196 149
4 186 136 195 151
4 106 138 182 157
4 97 161 137 170
4 102 162 192 103
4 144 69 157 182
4 130 103 192 146
4 131 107 191 145
4 36 37 185 149
4 62 63 186 151
4 32 147 187 31
4 58 148 188 57
4 77 177 108 163
4 60 150 193 65
4 34 152 194 64
4 122 184 114 161
4 75 189 193 150
4 74 190 194 152
4 112 189 195 119
4 113 190 196 120
4 189 75 151 195
4 190 74 149 196
4 131 193 189 112
4 130 194 190 113
4 99 171 118 181
CELL_DATA 164
SCALARS Von_mises double 1
LOOKUP_TABLE default
11210835.687716842 10407556.804952485 9429426.91752719 10141735.992435072 20984929.870771807 11367667.15576238 19073606.83805078 10124304.035772102 10136397.118288467 9985363.514484923 21666264.91299823 6787763.971871328 6341209.4747055285 9299758.397858528 17516393.641103238 10497662.8325245 11607338.73129471 11176356.24344833 9725431.860915843 9395605.972298732 10192974.21357143 10074029.295923915 10535125.884045498 10212498.686738566 9752352.26480135 9403170.29221262 9249174.441023696 8963279.300263613 8455813.425550533 8859800.797948487 9196803.929035831 12099047.987111166 11097996.66813516 11063444.364080627 26879819.586763635 26814444.469250716 31897269.41667748 26813341.325365722 26757358.56806571 9139797.236106863 10177073.316395758 8069492.154703878 12494961.956473798 13653803.88962002 12425917.56745044 14358419.763714071 9962493.724387964 10013590.551591326 27747410.981151577 17262763.574022815 13577149.386419497 16487388.251505006 15922064.080694051 15065464.523256395 13079222.937782736 15872225.424247228 13340466.863553237 13115684.232438441 528307.9702464265 447121.7368495713 12748182.532653317 16946860.922230035 14397156.912952444 20225080.858150348 11360491.596758975 7989827.736108978 7981777.152750573 8481438.319423694 10075568.384406574 21053650.478713546 433547.90019787353 547485.2700956125 10004746.93792034 10006297.316785477 18201953.70764777 10081000.500916095 8518827.070870232 15391698.93641707 10043635.350305308 8648181.666205768 12010922.77567729 15544630.597502658 16001180.142978363 11896464.030210078 11093940.670280406 28908399.259387147 11614014.091184098 10221931.354102641 8238680.462614415 10044872.512197893 8693732.671779744 10054401.193973172 12083056.467372678 9956145.855751507 9789191.015000071 10617916.889506271 9852723.730852926 9956069.850819921 10872542.192054393 10781134.71609515 10135967.485226765 9871846.10218126 10011440.778093817 9845369.275461752 11004686.707803562 11238866.223795127 10818417.695251122 17416439.629582196 9325678.696066903 9305650.7904994 10002629.453320762 10569225.614525523 10580032.502588086 9999526.433181174 19186036.40362963 3801274.135718556 3666930.225953168 17956545.898297857 6092644.530510061 6222738.450193943 12087060.575407645 11210955.925965847 11140945.135581603 31138730.487758424 11875255.713710183 11464818.834036248 3591124.0006495006 3598017.111612877 10465785.88335214 10265147.12700683 10811189.703101544 11084062.26061872 22936443.946518682 25922704.105388004 25923345.13906854 26088283.771924734 13324293.72668503 26038120.52349709 14027076.422549907 10009522.191897007 9708613.997535465 11367436.37449986 16019139.469843809 10776545.701683355 10071112.860695364 10362913.534315879 10155899.155695774 10002459.952264415 9080141.872725526 10004621.72808789 9142286.802578922 18805242.701735184 8588964.12660671 10104030.39119315 12261826.277074868 8982096.430043958 10134576.530501872 9732963.24545564 10243754.499102565 9207427.728848219 10121608.46409424 9525194.140488967 10271407.232705409 23015228.68282848
SCALARS Stress double 1
LOOKUP_TABLE default
9946315.17373327 -1199746.0134724767 2111966.603782555
9189445.817257933 -934604.7183754456 2191600.543006492
9903922.665899504 1145176.0046433662 -534388.8497118657
10014933.61249603 -245612.96766628308 -109225.12244352362
22343129.177694697 6350110.898462629 3773119.836612767
10697934.652645098 -1052918.3379426077 -895425.807772749
19009423.33645105 170805.74102011308 -1373808.1217683305
10017050.372847127 -129894.67102574614 529842.7276731253
9909120.103569448 -383357.85237720754 450992.63403116254
9745383.640065795 -354704.4904829683 -619794.4847999382
23617313.762713205 4791338.081365535 -785523.2045539602
6161994.785775659 -304524.410622078 -1429958.8631435805
5575472.414661101 -223821.16593510823 -1615244.079041848
8595095.151667573 -518199.9349969212 -1621453.7377307988
17566593.313623752 2511476.984981368 -3466478.6988832424
8697376.176977158 -495354.5557854989 3162431.1077045966
9767431.921339609 -755994.6955183782 3233776.5014499077
10274718.491573624 -1199465.981010697 -1363598.7758715842
9684223.65209208 -69927.54971368403 198118.857001098
9390161.276218504 -417.9290676500759 181069.2292008142
10048045.025442993 -270119.7586297867 220887.8329426447
10156246.679520246 236604.06603861062 477405.2841024801
10237239.431434287 -572244.3301872693 -26710.929930004902
10321266.30771777 221964.3797133681 -52524.66022235226
9715621.158476809 -65286.34143152272 -159708.62550763253
9393229.536788657 -14695.869901294203 -127269.74729988124
9170463.270947507 -107336.31961943186 -389010.0146400036
8885509.421331128 -122834.50955990556 -306356.34440522693
8149501.007206851 -304316.9258197449 -915382.2765083237
8732032.335657733 -195987.33508827863 407391.1656181622
9068344.488144267 -186532.05541491255 454605.9132886462
11397521.053416532 -1290862.0718426404 186657.88843089342
10567771.796752233 -992911.8265079441 -54741.226558715665
10703390.818594785 -687107.4062882629 -59806.60470146449
27043281.062447224 379236.5796943959 657680.6278896298
27005018.055557348 454279.9280467639 -775650.1401418096
32320914.99939234 3162692.5803205944 4655202.950903402
26985768.08759066 391833.48631731916 617518.6537129438
26961351.327557564 465802.18152766506 -679081.9108776518
9845824.390103277 1652740.3403756912 -213444.85428914032
10064735.523224907 -220603.37763577086 -40577.63411342761
7893136.884428936 -160822.55502803874 -711766.6807199388
11519196.376195066 -1705478.380499758 540922.7467017369
12201828.323950792 -2024040.3928665395 -1707631.2348377237
11423133.493760016 -1733229.1568002412 -608949.1586393676
13121945.492874522 -2212897.1572019234 -121566.01300243151
9937821.658101683 14234.613422343029 -459071.6449454146
9870196.219621105 -251852.96511622734 -317256.05897441396
28757369.409653936 5578082.724120467 -4906747.035516194
16228872.17327052 -1875132.5768453889 -475851.9090182141
12145026.692503765 -1925853.925803164 1801744.6564601725
15504188.437446348 1571243.023788185 4216877.025084332
15000644.5348935 763200.2848571376 3622099.282403452
13707538.982439801 -2395053.4978129114 410294.9762894681
11767998.79470567 -1856227.8224760834 -1558910.7861469577
14482710.19458988 -2416264.162162005 669890.3447898907
12090670.849378815 -1801867.9135687735 1500134.962214803
11984044.29363198 -1871662.1304871948 907497.3366589177
-92314.67322982906 302595.65585016354 224417.14321207337
-4772.51190704448 210727.65945349052 226923.7933542468
11159515.674518721 -1571146.216921193 2448103.7918070043
15642054.2710848 -1625636.742704656 2194784.752100457
12738812.632384451 -1803838.098244236 2501212.5363384103
21515990.703141954 5566057.8848710405 3410488.1912188097
9400569.132470986 -630207.8657903197 -3384700.6141051888
7652720.906322642 -275266.2971701806 1015037.3229772787
7683898.532175016 -209196.55886249393 1002540.3618791287
9431943.47036893 2482180.9107467383 273133.8485493529
10008009.118974052 -133714.89647063683 15622.277112518585
22962853.941774882 4609105.791845007 -431240.1606434316
14736.798522417706 156620.6894543695 -234893.3486464755
-112521.40299185531 183352.1511211952 -278585.715255891
9691697.168468844 -443482.91575505986 746366.3245049665
9731812.738824107 -416748.1277208895 629394.700797249
18366467.647056248 2891015.8371493565 -3592759.4415468024
10008565.771047994 -143195.80590712003 -22305.647177340263
9447051.046998257 2398356.4383746255 -276238.58982749406
14022342.331371462 -2177965.355499676 -1290297.485167645
9998197.870148402 -89887.28705387513 35869.17391957991
9500461.917513495 2362924.47198271 682576.3413497003
11193344.703085296 -1476714.3722112838 -295094.30579579493
14068412.029342404 -1693124.2234250624 -2382511.5989586078
14503061.996624812 -611833.8739332776 -3485740.1603064886
9320418.2294035 481466.8464801242 -4431377.607456941
8540022.854207726 532856.6336758734 -4258724.4132043095
29774579.685658768 5137832.174375012 -5024918.782690884
10126091.311951062 -1230883.5225335115 -2474434.9430834497
9701716.157134622 -687029.1081954534 -1037177.8727987815
7172746.54447431 -200337.0777550202 -2232372.485860091
9998706.20952705 -91278.03764900181 -38052.419469733155
9523994.13603062 2285351.421311868 -687353.8345656276
9766049.728876079 -434818.9244338062 -653127.1765809747
11002805.390933374 -1551461.5594926206 -1349205.2650566332
9939960.80896687 -31747.07833262713 -42609.95890019037
9806333.360358598 54556.116101943306 -255672.86729604428
9637379.818918146 -1000270.9047954502 -1753143.537008574
9879166.115479264 86461.70502434685 329107.7328201829
9932834.517554574 -45072.49045032113 64281.1609242477
10425967.630916342 -802011.2029005663 410855.9627720431
10532242.738337282 -431207.6827595625 438635.9979919194
7710203.002868263 560716.0966152716 3970702.6627122974
7710718.360353503 336663.39248410735 3673360.9585004454
9945471.739167513 -126267.56181023475 -122207.98388711717
10144253.98877761 831943.0900242543 -768704.5131802853
10075887.230115028 -1081699.1029439985 1582242.5999640669
10384459.237672497 -1142178.9214818752 1330368.0188261846
10484612.081630658 -570042.4397202681 -519438.3803787382
16809832.74409906 -1112585.0256253302 -523347.8297460464
9064509.856499612 -331954.02509802533 749166.2469067262
9032675.306842592 -309728.9973003024 839106.6516206397
9998093.996363195 -9059.779007987656 -4075.0714692596043
11039555.371794792 1887544.710203287 1539651.1072133954
11059009.135897469 1886045.9390472062 -1520530.025397457
9997915.01469198 -3214.060877482103 5164.274496169134
20340465.52035813 2589173.429142984 -331978.46920836146
2758233.093220391 522739.3156391051 -1634055.8686649455
2651989.86807721 679039.9997527584 -1607590.2151692773
17205316.445080563 -743642.4309170484 2087024.9328762186
5476231.196671613 -174183.76447866106 1431432.6980284555
5551980.276562723 -206660.70736241288 1495315.3523584343
10471759.40667865 -1323020.4938497546 -2635308.5052396134
10551017.337121798 -1041237.4147387666 873932.9792921767
10604018.397951866 -875202.812055876 736841.3774862533
31617250.51012619 3084233.5454299706 4395925.941293818
7890905.434083155 4363276.570973318 -5602003.512609267
7533313.314441512 4280569.240459729 -5434913.603542212
2649193.1818346395 574726.1870006266 1535165.309161778
2650938.425131726 536368.4811428855 1533236.366942693
10174254.47929155 -548595.6787512078 211904.60604540142
10296918.57485569 96953.46286258195 334482.3565719011
6046787.913079752 4938131.709683884 5347674.543943013
6159411.42946359 4953545.560579513 5504283.1371375555
24467734.084537588 4482496.646050032 2380070.69003458
26854155.726191282 2048718.1910124496 743921.9231684746
27124275.174064834 2697833.0960162273 -854787.1736991007
26983651.866411325 1947522.0362771042 642779.5537271727
12250617.308485547 -1913724.0287646246 -342801.452395162
27142398.842061188 2444108.657993324 -739191.0829070237
12273190.07673286 -1453177.782236645 -2954139.7789644194
9927868.72577398 -156100.90656230706 133965.5086494392
10071359.060224269 1003197.689041501 800431.3346785967
10709903.90598628 -1058327.416543312 -829040.8514231993
14561975.279283388 -519574.85894627887 -3498843.1914031873
10324434.315407924 -791302.1168236219 -498025.28664684854
9516425.478868626 -709975.1875589186 -1096124.936127879
10121648.146285418 -451356.74586979044 -238060.66475837084
10244763.377360383 230920.97781274747 -408051.1737204511
9987758.418040214 -29156.125467841728 24714.788346978832
9739956.096549533 2169629.1667722017 1155715.330427717
9987113.041168835 -34745.484969463505 -24594.648860354126
9786055.277200341 2107994.471932032 -1154677.4188565554
20045691.242171243 2806071.502335738 246996.19279158497
9437884.45009686 2081122.535357813 48183.270894788635
10015395.485418487 -174986.71792944588 5827.538167316644
10177016.445291681 -892557.4352937798 -3507158.8429371165
9727133.081575308 1788721.3555873316 294700.3425239706
10033326.981655238 -199088.36787757807 40150.80075740054
10075647.242482184 785092.6623242665 410630.5769815658
10070693.310599938 -333938.77437119896 117093.1189028408
9822154.898971083 1520494.9355429814 555166.7778165954
10024862.529989855 -188660.43648177452 86026.07038638335
9979794.332478968 989542.5317447806 98767.44292795363
10096260.539553456 -341629.60983703996 21888.492186344174
24562965.58691809 4315051.44942252 2139490.9165150556
SCALARS Strain double 1
LOOKUP_TABLE default
4.954922585468757e-05 -2.0113656565348356e-05 2.6399582547281927e-05
4.552801554216619e-05 -1.774730030554243e-05 2.7395006787581152e-05
4.596331665628122e-05 -8.778849976569642e-06 -6.679860621398321e-06
4.85029687634419e-05 -1.5625447362572558e-05 -1.3653140305440454e-06
9.826007648151882e-05 -1.696287763681631e-06 4.716399795765958e-05
5.295101035590327e-05 -2.0491820835269893e-05 -1.1192822597159362e-05
9.114510391415873e-05 -2.6596256057284626e-05 -1.7172601522104127e-05
4.834624410651371e-05 -1.5072162417691752e-05 6.623034095914067e-06
4.819292047732025e-05 -1.6135066747346356e-05 5.637407925389533e-06
4.736439897697446e-05 -1.5761151838955323e-05 -7.747431059999226e-06
0.00010663419393415167 -1.1028154074271279e-05 -9.819040056924503e-06
3.006419283154944e-05 -1.0351552145936423e-05 -1.787448578929476e-05
2.712797482904632e-05 -9.117610049679993e-06 -2.0190550988023102e-05
4.2069976596955045e-05 -1.4888117694698045e-05 -2.0268171721634982e-05
8.083245297177568e-05 -1.326202408223922e-05 -4.3330983736040524e-05
4.252876222938849e-05 -1.4925804850378102e-05 3.9530388846307464e-05
4.80491842788227e-05 -1.7722232076539712e-05 4.0422206268123845e-05
5.112768406671553e-05 -2.058596888693646e-05 -1.7044984698394803e-05
4.665962460099128e-05 -1.430382041029475e-05 2.476485712513725e-06
4.514560891797499e-05 -1.3545511115063467e-05 2.263365365010178e-06
4.8697504581884276e-05 -1.5791025318570603e-05 2.761097911783059e-06
4.8486853171676255e-05 -1.3510913162583956e-05 5.9675660512810015e-06
5.0042849665819554e-05 -1.7516423844315168e-05 -3.338866241250613e-07
4.930133170097961e-05 -1.3819305349047897e-05 -6.565582527794034e-07
4.6803880100510894e-05 -1.432679177391618e-05 -1.996357818845407e-06
4.51809533546108e-05 -1.3618580437201401e-05 -1.5908718412485156e-06
4.424357772516026e-05 -1.3742669715883095e-05 -4.862625183000045e-06
4.289596045288029e-05 -1.3406189115188675e-05 -3.829454305065337e-06
3.961921194688833e-05 -1.3217150134527884e-05 -1.1442278456354047e-05
4.226359873165488e-05 -1.3536524210507685e-05 5.0923895702270275e-06
4.386684665754203e-05 -1.3976131739702854e-05 5.6825739161080774e-06
5.6657594591198675e-05 -2.2644799941671153e-05 2.3332236053861678e-06
5.223867954184911e-05 -2.0015593103526992e-05 -6.842653319839458e-07
5.2449630002313764e-05 -1.8740983903205278e-05 -7.475825587683062e-07
0.0001294687985025909 -3.718147951461429e-05 8.221007848620372e-06
0.0001291766061401121 -3.676550715682904e-05 -9.695626751772619e-06
0.00015082743858315465 -3.14114515360438e-05 5.819003688629252e-05
0.000129174125200459 -3.703796605749942e-05 7.718983171411798e-06
0.00012895005131297721 -3.664713084970963e-05 -8.488523885970647e-06
4.495193407687775e-05 -6.2548412339196734e-06 -2.6680606786142537e-06
4.8706329502479024e-05 -1.5577038627900202e-05 -5.07220426417845e-07
3.8179729091044945e-05 -1.2157517405561152e-05 -8.897083508999235e-06
5.784057639588939e-05 -2.481364083345326e-05 6.761534333771711e-06
6.158192520101325e-05 -2.7329754279095084e-05 -2.134539043547155e-05
5.741876077307735e-05 -2.480850579292426e-05 -7.6118644829920946e-06
6.627795500016875e-05 -2.9564811562809045e-05 -1.519575162530394e-06
4.775745804843742e-05 -1.4264960980808474e-05 -5.738395561817683e-06
4.7816115909403716e-05 -1.5446691495204614e-05 -3.9657007371801745e-06
0.00013021127207893174 -1.4659269705652475e-05 -6.133433794395242e-05
8.072794204963527e-05 -3.242208763858916e-05 -5.948148862727677e-06
6.116722533771496e-05 -2.6775778526703334e-05 2.2521808205752154e-05
7.227315158802833e-05 -1.4807757247335194e-05 5.271096281355415e-05
7.101771369921327e-05 -1.7966312863514e-05 4.5276241030043145e-05
6.935603380665229e-05 -3.128516919492717e-05 5.128687203618351e-06
5.925416894927161e-05 -2.589724740811435e-05 -1.9486384826836975e-05
7.31134107848004e-05 -3.250517894489889e-05 8.373629309873634e-06
6.0727073189660804e-05 -2.6101294078761627e-05 1.8751687027685038e-05
6.031511025374106e-05 -2.6283054897003795e-05 1.1343716708236472e-05
-8.802565864657604e-07 1.5879329702841938e-06 2.805214290150917e-06
-3.26878892995633e-07 1.019997178007711e-06 2.836547416928085e-06
5.591759394036096e-05 -2.3649042881138507e-05 3.0601297397587555e-05
7.754685237450094e-05 -3.0376216461683154e-05 2.7434809401255718e-05
6.384598106662366e-05 -2.7045585999805632e-05 3.126515670423013e-05
9.541429489269538e-05 -4.272785221497811e-06 4.2631102390235124e-05
4.61039975586927e-05 -1.6588358680440463e-05 -4.2308757676314866e-05
3.718894613208508e-05 -1.2360973889745063e-05 1.2687966537215986e-05
3.724354567227772e-05 -1.2088298646706725e-05 1.253175452348911e-05
4.1765813447812057e-05 -1.6702025498266372e-06 3.41417310686691e-06
4.830828648036175e-05 -1.5077488616167558e-05 1.952784639064823e-07
0.0001037505875202951 -1.0960338416766627e-05 -5.3905020080428946e-06
-1.5504523227833232e-07 7.317290860463663e-07 -2.936166858080944e-06
-8.054185015779513e-07 1.0437912116286143e-06 -3.4823214406986374e-06
4.723433674613155e-05 -1.611053878026785e-05 9.329579056312079e-06
4.7388640274713336e-05 -1.603986514119289e-05 7.86743375996561e-06
8.413059084572808e-05 -1.2590982966189987e-05 -4.490949301933503e-05
4.832463708086602e-05 -1.5123872775103458e-05 -2.7882058971675327e-07
4.195934670906668e-05 -2.094994594831019e-06 -3.452982372843676e-06
7.055640354817963e-05 -3.069551949476497e-05 -1.612871856459556e-05
4.8197904116656555e-05 -1.4852628115857672e-05 4.483646739947489e-07
4.226723353807059e-05 -2.34237549649682e-06 8.532204266871254e-06
5.594403372475328e-05 -2.324383549585035e-05 -3.6886788224474362e-06
7.007860238639387e-05 -2.843099919340281e-05 -2.9781394986982603e-05
7.060871230194614e-05 -2.385938688904193e-05 -4.357175200383111e-05
4.411527968970894e-05 -1.1128166453562142e-05 -5.539222009321176e-05
4.028925896204311e-05 -9.755529916280985e-06 -5.3234055165053866e-05
0.00013573668285262627 -1.8242989092897198e-05 -6.281148478363604e-05
5.04584440803419e-05 -2.0522648635186684e-05 -3.093043678854312e-05
4.76337735076599e-05 -1.729588440065308e-05 -1.2964723409984768e-05
3.4773306095196235e-05 -1.1308466543737084e-05 -2.790465607325114e-05
4.820235394625842e-05 -1.4860047598591911e-05 -4.756552433716644e-07
4.249225341171664e-05 -2.749263555275571e-06 -8.591922932070344e-06
4.757930483752991e-05 -1.6176124245656876e-05 -8.164089707262182e-06
5.513578778260174e-05 -2.332838065756074e-05 -1.6865065813207916e-05
4.783406217532047e-05 -1.4489112120301389e-05 -5.326244862523797e-07
4.706714675734623e-05 -1.388146101925787e-05 -3.1959108412005537e-06
4.777625524209991e-05 -1.8709061781110067e-05 -2.1914294212607175e-05
4.73712865575575e-05 -1.3833116007785732e-05 4.113846660252288e-06
4.781902050331573e-05 -1.4542898296714871e-05 8.035145115530962e-07
5.1281591306665916e-05 -1.8893276404689755e-05 5.135699534650538e-06
5.1257716553678616e-05 -1.726384857817667e-05 5.482949974898993e-06
3.625955852828693e-05 -8.424734635794266e-06 4.9633783283903725e-05
3.6585189147155156e-05 -9.502654402028576e-06 4.591701198125556e-05
4.799688465245474e-05 -1.4951485978656197e-05 -1.5275997985889644e-06
4.757053395081892e-05 -1.063140916638956e-05 -9.608806414753567e-06
5.000190846633765e-05 -1.9733006115281288e-05 1.9778032499550837e-05
5.1572658240947406e-05 -2.0468830253767424e-05 1.662960023532731e-05
5.1228965449743945e-05 -1.7862625308699358e-05 -6.492979754734228e-06
8.242119351820507e-05 -2.959391754257234e-05 -6.5418478718255805e-06
4.405815415398568e-05 -1.4669745105999562e-05 9.364578086334077e-06
4.3873048105926365e-05 -1.4516978794966728e-05 1.0488833145257997e-05
4.8080826586853814e-05 -1.4463884509216086e-05 -5.093839336574505e-08
5.035236518622023e-05 -6.8477014487266855e-06 1.924563884016744e-05
5.0448054587419744e-05 -6.8829653928943955e-06 -1.9006625317468217e-05
4.807153477382321e-05 -1.4435521948485946e-05 6.455343120211417e-08
9.405631486353478e-05 -1.6889260706559873e-05 -4.149730865104518e-06
1.2506785089080093e-05 -1.4650510208029419e-06 -2.0425698358311818e-05
1.1770566673804725e-05 -5.603700032230998e-07 -2.009487768961596e-05
8.379042872286383e-05 -2.8390564252121238e-05 2.6087811660952726e-05
2.6579261182765436e-05 -8.735832324423773e-06 1.7892908725355693e-05
2.6990281196016573e-05 -9.00122495351553e-06 1.8691441904480427e-05
5.225319978285373e-05 -2.1464174595448796e-05 -3.294135631549517e-05
5.2227829622804936e-05 -2.0223762576323586e-05 1.092416224115221e-05
5.224316943061842e-05 -1.950196313192998e-05 9.210517218578166e-06
0.0001475575983004673 -3.0773757728884064e-05 5.494907426617272e-05
3.1643857994188265e-05 9.596177599751785e-06 -7.002504390761583e-05
3.0043954530305742e-05 9.714304067919598e-06 -6.793642004427766e-05
1.1907573681415633e-05 -1.0578450362969487e-06 1.9189566364522232e-05
1.1971287888407984e-05 -1.2447742615222704e-06 1.9165454586783662e-05
4.970592876402362e-05 -1.731188472374362e-05 2.648807575567518e-06
4.9364579499985186e-05 -1.4385202449971762e-05 4.181029457148764e-06
2.1948790385454745e-05 1.5019689114230573e-05 6.684593179928767e-05
2.2468018083123732e-05 1.4931356402598253e-05 6.880353921421944e-05
0.00011116819755155087 -1.3739536438996371e-05 2.9750883625432252e-05
0.00012615163590811321 -2.88823486867545e-05 9.299024039605933e-06
0.00012651406367913446 -2.6151199308669338e-05 -1.0684839671238758e-05
0.0001269201694977317 -2.955564194060718e-05 8.03474442158966e-06
6.16573774861295e-05 -2.686975587168408e-05 -4.285018154939526e-06
0.00012696714540703458 -2.7397168243389576e-05 -9.239888536337796e-06
6.110165101636469e-05 -2.4688148102194728e-05 -3.6926747237055244e-05
4.795528364299364e-05 -1.506952655910818e-05 1.67456885811799e-06
4.69730757380376e-05 -9.70293283185471e-06 1.0005391683482458e-05
5.3016356398794586e-05 -2.0535089367015364e-05 -1.0363010642789991e-05
7.075888335080421e-05 -2.3500805013131227e-05 -4.373553989253984e-05
5.077800456949525e-05 -1.869534813195192e-05 -6.225316083085607e-06
4.6776048245847605e-05 -1.713895591932455e-05 -1.3701561701598487e-05
4.931276524060747e-05 -1.6768515335362575e-05 -2.975758309479636e-06
4.892061098084884e-05 -1.3665904016323883e-05 -5.100639671505639e-06
4.806012142154119e-05 -1.4545594475384164e-05 3.089348543372354e-07
4.369743916595131e-05 -3.617104145157013e-06 1.4446441630346464e-05
4.806508022432535e-05 -1.4571535564039008e-05 -3.074331107544265e-07
4.400796603663814e-05 -3.9799139962888e-06 -1.4433467735706943e-05
9.232629707437752e-05 -1.54213262995944e-05 3.0874524098948112e-06
4.237282543023805e-05 -3.606936536880983e-06 6.022908861848581e-07
4.840332452306404e-05 -1.5286564247860538e-05 7.284422709145804e-08
5.0215306134037594e-05 -1.8969530619621566e-05 -4.3839485536713955e-05
4.4185176321630336e-05 -5.429896965794524e-06 3.683754281549632e-06
4.8524295634704385e-05 -1.5428300299875717e-05 5.018850094675067e-07
4.730826655665819e-05 -1.0757699569328794e-05 5.132882212269573e-06
4.889843722553509e-05 -1.613051330553452e-05 1.4636639862855103e-06
4.5028877011097055e-05 -6.856497760328575e-06 6.939584722707442e-06
4.846856086987687e-05 -1.5365957670570825e-05 1.075325879829792e-06
4.65525556392093e-05 -9.636518115379373e-06 1.2345930365994206e-06
4.9032449146656574e-05 -1.6204364287034023e-05 2.7360615232930215e-07
0.00011186754880813145 -1.4681914551215907e-05 2.6743636456438196e-05
POINT_DATA 197
VECTORS Displacement float
0.0 0.0 0
3.7248596212534243e-06 -2.6261274772639746e-07 0
7.043342199683573e-06 4.4096866414315656e-08 0
1.4482130049863348e-05 1.6039943212058717e-07 0
1.781555290887412e-05 -1.2964315145974602e-07 0
2.1590773878154767e-05 1.014676768320577e-06 0
2.1461355103895626e-05 -4.424377485973145e-07 0
1.769824494186595e-05 3.951063243979661e-07 0
1.4394098015742986e-05 5.153651079186673e-08 0
7.026754773831364e-06 -6.550055714108418e-08 0
3.746629565246931e-06 2.2017324032819733e-07 0
0.0 0.0 0
8.60783139189555e-07 4.788436657198654e-07 0
1.5721444329202094e-06 6.825565941458226e-07 0
2.2531145919514515e-06 8.21444094792645e-07 0
2.8769807304234855e-06 9.398382501931165e-07 0
3.418851277771447e-06 1.0175602426398633e-06 0
3.7441616414956055e-06 1.0063060346407064e-06 0
3.767076211600893e-06 6.216476043243438e-07 0
4.664417814280716e-06 -3.1956925382347366e-07 0
9.187027694315847e-06 5.755433385258303e-07 0
1.0794826018056794e-05 7.14446826333651e-07 0
1.2402143688607041e-05 6.381496756910473e-07 0
1.6858620367205838e-05 -1.803034173401003e-07 0
1.7775237763619738e-05 7.629096140413268e-07 0
1.7798271853822404e-05 1.1599265079712654e-06 0
1.81553568206695e-05 1.2187035322626941e-06 0
1.869535702253986e-05 1.13595334360787e-06 0
1.9362060823688136e-05 1.0761527969623938e-06 0
2.0089407671098607e-05 1.0350454898495042e-06 0
2.083863061521056e-05 1.0182353527994743e-06 0
2.159264835141076e-05 8.35174974335302e-07 0
2.1588637509784045e-05 6.558506183377201e-07 0
2.1577053935828484e-05 4.7306897754025575e-07 0
2.1561560655159308e-05 2.862290548409249e-07 0
2.154420935664287e-05 9.905966460654083e-08 0
2.1523610720410143e-05 -8.382346382012544e-08 0
2.1495493903111738e-05 -2.631954549183778e-07 0
2.0709279311144767e-05 -4.868876915461452e-07 0
1.9962855285505216e-05 -5.449065637409419e-07 0
1.9235522915649713e-05 -6.242426171625572e-07 0
1.8572744356945094e-05 -7.310210209379224e-07 0
1.8006063819043393e-05 -8.259180600084656e-07 0
1.7674179186474907e-05 -8.374385612196203e-07 0
1.765406355773825e-05 -4.7586154372477265e-07 0
1.6763787732336722e-05 4.446325464839279e-07 0
1.2299412108705018e-05 -4.6040144944003656e-07 0
1.0698058935051673e-05 -5.924381915041372e-07 0
9.08535347119518e-06 -5.023388810544402e-07 0
4.655405188866861e-06 2.746823722011649e-07 0
3.781816919820469e-06 -6.249715640290138e-07 0
3.737725932156799e-06 -1.0345771219791213e-06 0
3.421170345734463e-06 -1.021484249372394e-06 0
2.898162734460329e-06 -9.388608426111665e-07 0
2.2595987371751604e-06 -8.229067917379929e-07 0
1.5779551861251362e-06 -6.844744819183524e-07 0
8.649058735751487e-07 -4.788343646854296e-07 0
0.0 0.0 0
0.0 0.0 0
0.0 0.0 0
0.0 0.0 0
0.0 0.0 0
0.0 0.0 0
0.0 0.0 0
2.111162156002916e-05 3.378903354688823e-07 0
3.958948313183435e-07 -1.5722276559682796e-08 0
3.256563148017931e-06 7.531375915236402e-07 0
1.8159510042611377e-05 -5.835176506190782e-07 0
1.893093221525657e-05 9.252006324204915e-07 0
2.6672514725322548e-06 -7.304444904857993e-07 0
3.827757395224863e-06 -8.652397907385893e-07 0
1.7591705830978027e-05 1.0249077430968116e-06 0
1.930936823443882e-05 -4.2711272190203814e-07 0
2.1296618715418398e-06 6.261554165476215e-07 0
2.1088988724410137e-05 7.415544138743295e-08 0
3.9717574148816184e-07 5.523388026472367e-08 0
5.468283035019827e-06 5.131836192540271e-07 0
6.845523607525916e-06 2.2129024395436084e-07 0
5.272239579121416e-06 6.125504280932475e-07 0
5.368058757641238e-06 2.448449137752972e-07 0
1.606414418799116e-05 -3.885473363725686e-07 0
1.4900990553360215e-05 -6.169180894811648e-08 0
1.6513463831364172e-05 -5.149079815515638e-07 0
1.6300680604212935e-05 1.4559972566509648e-07 0
4.617856785179392e-06 3.8229721569826525e-07 0
4.7616535040674784e-06 -1.8255323677938396e-07 0
4.141245305653678e-06 2.1600584337107946e-07 0
1.6953386275031145e-05 -2.1019747438330553e-07 0
1.7672000240839784e-05 5.261853843656104e-08 0
3.720685326000676e-06 -3.0817390351127603e-07 0
3.414585390392383e-06 1.2399234902117967e-08 0
1.7267960676379453e-05 3.6499664713468307e-07 0
1.819647425504415e-05 2.1302984084537305e-07 0
2.023437484878034e-05 8.4734566136196e-07 0
1.333116868778063e-06 -4.821050529309747e-07 0
9.022673576314867e-06 -1.1871325423624145e-07 0
1.081475308679592e-05 3.7679905014272096e-07 0
5.775955630217112e-06 -4.986354017796309e-07 0
1.5726611050696697e-05 6.448014973861223e-07 0
1.3440813129152616e-05 1.317080989908799e-07 0
1.8163301284367374e-05 -1.983212839652647e-07 0
1.8806668649965155e-05 7.302354089994533e-08 0
1.895324536375545e-05 4.327833888521499e-07 0
1.964774782175497e-05 3.9920841136028445e-07 0
3.066837058525756e-06 3.2898730223677053e-07 0
2.3991726038003674e-06 1.805297960205405e-07 0
2.541755723278022e-06 -2.0196843149964136e-07 0
1.7942229565803158e-06 -1.3798249125146913e-07 0
7.51294231240811e-06 -7.257548302134827e-08 0
1.6546974565709638e-05 8.215498639503241e-07 0
1.962695853793201e-05 1.2541811666222602e-07 0
1.7587115976118987e-06 1.0570347098725845e-07 0
1.2219472637317678e-06 8.882907795243523e-08 0
2.0205527672691844e-05 1.274756696132059e-07 0
4.515666444487267e-06 -6.11148459487074e-07 0
4.305661324207252e-06 6.268405382974861e-07 0
1.7354963646446615e-05 -5.712407325314125e-07 0
8.269409305340614e-06 6.041989264797455e-08 0
1.2175920132063153e-05 -1.454087276442731e-07 0
1.2722117948615764e-06 2.0756758473924374e-07 0
2.0148649837310618e-05 -2.916864492490182e-08 0
3.826521595229402e-06 -6.067510740355727e-07 0
4.38806155442822e-06 -8.352920282850942e-07 0
1.7290414335317286e-05 1.0280695597440424e-06 0
1.836710533995238e-05 9.311868157410614e-07 0
1.854659235141397e-05 7.320840612880605e-07 0
4.217369179199513e-06 8.770372010184549e-07 0
1.7288892231555204e-05 -7.248854724310139e-07 0
1.9555508882899102e-05 8.772171977909771e-07 0
2.019599036091121e-06 -6.168635513466727e-07 0
2.04170265583461e-05 3.769256240303854e-07 0
1.0396490200174585e-06 -7.743469487295862e-08 0
1.7783994938689198e-05 8.3423448642266e-07 0
2.0077791982849556e-05 -2.9209086666469204e-07 0
1.884223702493968e-05 -5.09209945539465e-07 0
2.586520379079324e-06 7.111409148598194e-07 0
1.362423991508431e-06 4.372113494541867e-07 0
5.784956767675233e-06 -3.14363152821811e-07 0
3.1758162679515322e-06 -3.64281035724015e-07 0
1.9149643979786952e-05 -2.258649670786402e-07 0
2.2098794936694943e-06 4.276007324089875e-07 0
9.295999481095811e-06 2.61121962936442e-07 0
1.0660598519253398e-05 -2.587447657383593e-07 0
1.2380428764684088e-05 2.67316068959889e-07 0
3.277250526550958e-06 -8.304877899325502e-07 0
1.1765030314054196e-06 -2.778496359071068e-07 0
2.0321297474493844e-05 6.390741821315924e-07 0
2.09693103150593e-05 6.443566520433625e-07 0
5.527285383343711e-07 -1.487620085743501e-07 0
2.097823837727219e-05 -9.613388405109028e-08 0
3.549654051533037e-07 1.8258346662952602e-08 0
4.857787685434095e-07 1.2735843407124885e-07 0
2.1144555075157566e-05 1.927159893406685e-07 0
4.671418518294563e-07 -6.441408596945696e-08 0
1.7652111854193266e-05 -4.2958433884676605e-07 0
3.686760145416104e-06 5.100401319035581e-07 0
2.104125238323149e-05 4.588376864178574e-07 0
2.5546296434467033e-06 -4.902092364125997e-07 0
1.7064655327168685e-05 6.78205910584968e-07 0
1.6134497851248994e-05 5.332222138471583e-07 0
1.494990423092833e-05 3.622662309469854e-07 0
5.142434330508681e-06 -6.224199061684325e-07 0
1.900357348812261e-05 6.945777227856739e-07 0
6.417244001277115e-06 1.0351082077419811e-08 0
1.8596072888755493e-05 -3.95699494853054e-07 0
2.766245109294942e-06 5.794950604732338e-07 0
3.758275565018383e-06 8.791793791625459e-07 0
1.772371022019416e-05 -7.159293900957073e-07 0
4.54644648217392e-06 5.848182795253698e-07 0
1.6923372474689723e-05 -4.632265591256389e-07 0
6.3620151604813e-06 -3.1922289564949204e-07 0
1.3253921179978177e-05 6.622101660601511e-08 0
4.6139408962411555e-06 -6.106271203429362e-07 0
1.6959557242934384e-05 7.441939651479875e-07 0
1.7060095523666426e-05 8.566815902245539e-07 0
1.974547238798024e-05 -1.0370501454716726e-07 0
1.6462695550546449e-06 2.983073487805697e-07 0
8.04752615323177e-06 1.3474460410201102e-09 0
1.3693761980429741e-05 1.6090640084406518e-07 0
9.270581401255989e-06 4.8565680177364236e-08 0
1.0726911689199697e-05 6.249142247829671e-08 0
1.2178580834981113e-05 7.549188514466984e-08 0
3.201454965711471e-06 -5.726796890848092e-07 0
1.815341790538736e-05 5.22853123261096e-07 0
4.2391688497203e-06 -8.072420964737331e-07 0
2.0835828336502793e-05 -2.841296429199391e-07 0
6.145840187319683e-07 2.542212108426469e-07 0
2.0910735538588304e-05 8.34410829932289e-07 0
6.405322609129731e-07 -2.706753415704592e-07 0
7.872143582141056e-07 8.596599235405546e-08 0
2.0665019449189122e-05 9.434634465410482e-08 0
1.8707083494576024e-06 -3.864053819761626e-07 0
1.964194853674165e-05 6.531749825535835e-07 0
5.977235344468979e-07 1.1426568846415629e-08 0
2.0877858211478713e-05 2.4524479828475806e-07 0
9.574859579958966e-07 1.9897557542891354e-07 0
2.0474193143431347e-05 -7.335137136498139e-08 0