# vtk DataFile Version 2.0
Really cool data
ASCII
DATASET POLYDATA
POINTS 240 float
0.0 0.0 0.0
0.125 0.0 0.0
0.125 0.03333333333333333 0.0
0.175 0.03333333333333333 0.0
0.175 0.0 0.0
0.3 0.0 0.0
0.3 0.1 0.0
0.175 0.1 0.0
0.175 0.06666666666666668 0.0
0.125 0.06666666666666668 0.0
0.125 0.1 0.0
0.0 0.1 0.0
0.01562500001914041 0.0 0.0
0.03125000004302709 0.0 0.0
0.04687500009029187 0.0 0.0
0.06250000012942511 0.0 0.0
0.078125000069625 0.0 0.0
0.09374999998136457 0.0 0.0
0.1093749999689982 0.0 0.0
0.125 0.008333333344674515 0.0
0.125 0.01666666670042899 0.0
0.125 0.02499999999587475 0.0
0.1374999999728949 0.03333333333333333 0.0
0.1500000000514996 0.03333333333333333 0.0
0.1624999999674739 0.03333333333333333 0.0
0.175 0.02499999998336357 0.0
0.175 0.01666666661645314 0.0
0.175 0.008333333310529064 0.0
0.1906249999454511 0.0 0.0
0.2062499999464675 0.0 0.0
0.2218749999813653 0.0 0.0
0.2375000000284603 0.0 0.0
0.253125000025411 0.0 0.0
0.2687499999464675 0.0 0.0
0.2843749999108921 0.0 0.0
0.2999999999999999 0.01250000000785633 0.0
0.3 0.02500000002464271 0.0
0.3 0.03750000005532045 0.0
0.2999999999999999 0.05000000007786666 0.0
0.3 0.06250000001503192 0.0
0.2999999999999999 0.0749999999440657 0.0
0.3 0.08749999994628305 0.0
0.2843749999369807 0.1 0.0
0.2687499999742503 0.1 0.0
0.253124999894968 0.1 0.0
0.2374999998970008 0.1 0.0
0.2218749999180072 0.09999999999999999 0.0
0.2062499998726061 0.09999999999999999 0.0
0.1906249999261387 0.1 0.0
0.175 0.0916666666314301 0.0
0.175 0.08333333328454423 0.0
0.175 0.07499999993494787 0.0
0.1624999999105533 0.06666666666666668 0.0
0.1499999998834483 0.06666666666666667 0.0
0.1374999998590537 0.06666666666666668 0.0
0.125 0.07500000001355255 0.0
0.125 0.08333333334688586 0.0
0.125 0.09166666658806201 0.0
0.1093749999923767 0.1 0.0
0.09374999993596433 0.1 0.0
0.07812499987955196 0.1 0.0
0.06249999985295514 0.1 0.0
0.04687499989276568 0.1 0.0
0.03124999993257619 0.09999999999999999 0.0
0.0156249999764525 0.09999999999999999 0.0
0.0 0.08749999998398685 0.0
0.0 0.07499999993815812 0.0
0.0 0.06249999990588191 0.0
0.0 0.04999999987631621 0.0
0.0 0.03749999991857893 0.0
0.0 0.0249999999459339 0.0
0.0 0.01249999997735459 0.0
0.2900248145496835 0.04913583339811931 0.0
0.009975185475534398 0.05086416697563469 0.0
0.07230341609972556 0.01413600760919753 0.0
0.2276965970154624 0.08586408942859126 0.0
0.08502909127026013 0.08658523343603254 0.0
0.2149694659142946 0.01341358025763462 0.0
0.2436387486048918 0.01278642559291444 0.0
0.05636122777894173 0.08721358067678209 0.0
0.1827283171193023 0.07405015851221043 0.0
0.1172717271692317 0.02595240279525225 0.0
0.181422141692362 0.06433680012796202 0.0
0.1185762189592341 0.03566989760852386 0.0
0.1902775685355505 0.06215329171725651 0.0
0.1097221601708443 0.03785411467737487 0.0
0.2593809648094838 0.08353632549317708 0.0
0.04061903614965925 0.0164636814589949 0.0
0.1167069570524059 0.07329838504271047 0.0
0.1832931730853382 0.02670648872304629 0.0
0.2005538656116593 0.06041722607575729 0.0
0.09944637764647547 0.03958787607079487 0.0
0.2008555174193223 0.04816965943612076 0.0
0.2113710729152653 0.05992290681968966 0.0
0.09914472581436838 0.05183714594500143 0.0
0.0886291317729719 0.04007950629309017 0.0
0.1785834136688178 0.05542397657479825 0.0
0.1214104488900893 0.04458780787686117 0.0
0.2900127562333268 0.06815067607621032 0.0
0.00998724376223886 0.03184932404818147 0.0
0.2147648819498864 0.04600124604120698 0.0
0.2229207724682379 0.05157943621204442 0.0
0.08523530569862967 0.0540012223730192 0.0
0.07707934300404953 0.04842169169362773 0.0
0.2725464381649082 0.01340103507509472 0.0
0.02745356204588051 0.08659896687205702 0.0
0.1818879651372935 0.03584922224968479 0.0
0.1922970244884102 0.02688680073139302 0.0
0.1181103556075292 0.06416112372664597 0.0
0.1077031415652423 0.073118494323903 0.0
0.2006581587172057 0.07198433576215964 0.0
0.09934199014385205 0.02801828825130557 0.0
0.07337517293142971 0.06223194044884037 0.0
0.06924317359400393 0.05195589188769731 0.0
0.06748484505895627 0.04044772310326006 0.0
0.226624877137734 0.03776879763513697 0.0
0.2307568908036282 0.04804473498563053 0.0
0.2325152043009148 0.05955268025775942 0.0
0.1937226528889704 0.01682185782790308 0.0
0.1062774671517797 0.08318015460895295 0.0
0.1433456687468128 0.0556829237269412 0.0
0.1709174784506355 0.04143844279152312 0.0
0.1290700554411746 0.05858057083654714 0.0
0.2443977269945924 0.05746339184052652 0.0
0.2568000661405129 0.05532828875178501 0.0
0.2567132969883303 0.04204348967286642 0.0
0.05560229226328967 0.04253676235350431 0.0
0.04319993963397319 0.04467175455006133 0.0
0.04328670911995226 0.05795655519314426 0.0
0.09821022022338338 0.07443432886625183 0.0
0.2017899022705072 0.02556905103847631 0.0
0.2686490054784733 0.05307848127748295 0.0
0.2675902433989325 0.0405856480389003 0.0
0.2691416751974722 0.06567406944714813 0.0
0.03135099609739811 0.04692153059627531 0.0
0.03240975844119259 0.05941436560260312 0.0
0.0308583258136187 0.03432593822044248 0.0
0.04318426679335452 0.06732653802061268 0.0
0.2568157380224054 0.03267349642884065 0.0
0.1135936505612123 0.09115786866254236 0.0
0.1864063934850488 0.008842585234704116 0.0
0.1566131574643736 0.04431837912884242 0.0
0.1179750278915737 0.00908787243005331 0.0
0.1820249887308108 0.09091233954184931 0.0
0.234892594180019 0.0337166690138451 0.0
0.06510741074323748 0.06628360426390481 0.0
0.121080571102629 0.05580583722053647 0.0
0.178913606328943 0.04420849420138733 0.0
0.0958726940171598 0.08554896956868274 0.0
0.2041271718173352 0.01445221539579912 0.0
0.229381169985146 0.01220404690947098 0.0
0.07061852696394288 0.08779575012236135 0.0
0.2563212191603001 0.01632616837997259 0.0
0.04367877648466973 0.08367384393321231 0.0
0.273528445651045 0.08731117608246404 0.0
0.2419142593482035 0.0855318569587051 0.0
0.05808574573593861 0.01446817964714867 0.0
0.02647155448366953 0.01268882505110118 0.0
0.2018617992177262 0.08350193779842756 0.0
0.2159368711550456 0.08367740730945407 0.0
0.2199407811667113 0.0718304170789085 0.0
0.09813828392120726 0.01649910451143679 0.0
0.08406317323816925 0.01632297776662855 0.0
0.08005930003928176 0.02817028861281193 0.0
0.2428170878411208 0.04161518467224078 0.0
0.05718292936533163 0.05838502838631224 0.0
0.2010536044295866 0.03632357597951844 0.0
0.09894661852336253 0.06368236644955541 0.0
0.2881563718461759 0.02507027715215416 0.0
0.01184362820312361 0.07492972344054642 0.0
0.2887821037626759 0.07631182423492823 0.0
0.009566893509858596 0.04244413718837889 0.0
0.0112178962416735 0.02368817592329371 0.0
0.2904331065094166 0.05755586311869288 0.0
0.01075186040534717 0.06252689907501138 0.0
0.2570832009403142 0.068825632245495 0.0
0.04291680329906061 0.03117439939901347 0.0
0.2892481396530653 0.03747310154327937 0.0
0.1417071106602449 0.04385185509667984 0.0
0.1311791378076323 0.05151867838547897 0.0
0.1582498779540726 0.0561778530578703 0.0
0.1688007825500191 0.04849368144646698 0.0
0.1828781440382323 0.0837792547222048 0.0
0.1171218981791167 0.01622157606716872 0.0
0.1090913585221015 0.06300038763455539 0.0
0.1909081099389209 0.03700869921403776 0.0
0.2221099333024286 0.02721755683294403 0.0
0.07788987103491013 0.0727828561028249 0.0
0.1843592906947545 0.01745430442478018 0.0
0.1156407989278618 0.08254736915096121 0.0
0.2644950926384146 0.02925675296932511 0.0
0.03550490877700777 0.07074326276472265 0.0
0.06879713510784828 0.02777967133298348 0.0
0.231202901739447 0.07222062470611114 0.0
0.08857660497702918 0.067306765091926 0.0
0.2114233940510647 0.03269546292470478 0.0
0.1242794119727554 0.05051438371761885 0.0
0.1757105415937634 0.04949965802320511 0.0
0.0898918973642156 0.02870021724876208 0.0
0.2101082375197579 0.07130140183935581 0.0
0.27780877194973 0.07584991615797645 0.0
0.0221912282331135 0.02415008540646721 0.0
0.05124698341250759 0.07155781156684035 0.0
0.2487530114727895 0.02844225922017114 0.0
0.1361939133344914 0.06069497989675966 0.0
0.1637904947631606 0.03931008811523738 0.0
0.108587572421075 0.02684707805565383 0.0
0.1914123971136738 0.07315629491362767 0.0
0.07828879365997386 0.03972064581782739 0.0
0.2217113178546896 0.06028047394568723 0.0
0.1302216361349837 0.04339250795965159 0.0
0.1697621351442616 0.05661826557396778 0.0
0.2821026207618895 0.06340886220182206 0.0
0.01789737948093105 0.03659113981842679 0.0
0.2796714243909455 0.05066609812897688 0.0
0.02032857608755807 0.04933390565256379 0.0
0.2695213333659664 0.07453944560818782 0.0
0.030478667446171 0.02546056056488337 0.0
0.09128106779979307 0.07570526661126298 0.0
0.208718997729888 0.02429516221800899 0.0
0.2782415826637147 0.03869484870793632 0.0
0.0217584179123579 0.06130515609668462 0.0
0.1059683346393874 0.09014183006899569 0.0
0.1940317175016343 0.009858542892181424 0.0
0.2757547680376248 0.02648815318262769 0.0
0.0242452321556514 0.07351185194284461 0.0
0.2091401954746872 0.08009866598744061 0.0
0.09085988843845323 0.01990230449888301 0.0
0.2866958126516401 0.08780471221369716 0.0
0.01330418736955946 0.01219528803671898 0.0
0.2863172231080332 0.0127066591792151 0.0
0.01368277690906627 0.08729334151052862 0.0
0.2357704658616725 0.02240046826980058 0.0
0.06422939614277133 0.0775995862544528 0.0
0.2439299995679957 0.07121231276407337 0.0
0.05607001518934639 0.02878780241459373 0.0
0.1120221242116808 0.05056922438903475 0.0
0.1879757569733832 0.04944115539893486 0.0
0.1920410600121246 0.08479591127105679 0.0
0.1079589852204007 0.01520534017935127 0.0
POLYGONS 203 1015
4 178 141 180 120
4 117 193 160 209
4 114 192 163 208
4 202 153 191 137
4 203 152 190 138
4 122 204 54 9
4 121 205 24 3
4 188 140 223 118
4 189 139 222 119
4 148 59 60 76
4 149 29 30 77
4 152 78 31 32
4 153 79 61 62
4 236 184 167 94
4 237 185 166 92
4 76 60 61 151
4 77 30 31 150
4 104 152 32 33
4 105 153 62 63
4 154 43 44 86
4 157 13 14 87
4 196 97 210 179
4 197 96 211 181
4 210 97 83 2
4 211 96 82 8
4 224 220 132 190
4 225 221 135 191
4 87 14 15 156
4 86 44 45 155
4 75 46 47 159
4 74 16 17 162
4 124 125 132 131
4 127 128 135 134
4 124 123 164 125
4 127 126 165 128
4 59 222 139 58
4 29 223 140 28
4 156 15 16 74
4 155 45 46 75
4 165 126 114 113
4 164 123 117 116
4 238 158 47 48
4 239 161 17 18
4 164 116 115 144
4 165 113 112 145
4 131 132 220 214
4 134 135 221 215
4 155 234 175 86
4 156 235 176 87
4 131 133 175 124
4 134 136 176 127
4 141 178 22 23
4 120 180 52 53
4 9 108 146 122
4 3 106 147 121
4 110 158 238 207
4 111 161 239 206
4 31 78 232 150
4 61 79 233 151
4 113 103 102 112
4 116 101 100 115
4 75 193 234 155
4 74 192 235 156
4 233 145 112 187
4 232 144 115 186
4 39 173 72 38
4 69 171 73 68
4 77 150 232 186
4 76 151 233 187
4 194 102 94 167
4 195 100 92 166
4 38 72 177 37
4 68 73 174 67
4 162 163 192 74
4 159 160 193 75
4 39 40 170 98
4 69 70 172 99
4 37 177 168 36
4 67 174 169 66
4 25 89 106 3
4 55 88 108 9
4 13 157 229 12
4 43 154 228 42
4 33 34 230 104
4 63 64 231 105
4 21 2 83 81
4 51 8 82 80
4 133 131 214 212
4 136 134 215 213
4 125 138 190 132
4 128 137 191 135
4 29 149 118 223
4 59 148 119 222
4 179 122 146 196
4 47 158 226 159
4 17 161 227 162
4 181 121 147 197
4 102 95 91 94
4 100 93 90 92
4 113 114 208 103
4 116 117 209 101
4 187 112 102 194
4 186 115 100 195
4 129 167 184 109
4 130 166 185 107
4 91 85 236 94
4 90 84 237 92
4 42 228 41 6
4 12 229 71 0
4 64 11 65 231
4 34 5 35 230
4 148 129 109 119
4 149 130 107 118
4 120 179 210 178
4 141 181 211 180
4 122 179 120 204
4 121 181 141 205
4 83 85 206 81
4 82 84 207 80
4 128 165 202 137
4 125 164 203 138
4 53 54 204 120
4 23 24 205 141
4 88 109 184 108
4 89 107 185 106
4 26 188 89 25
4 56 189 88 55
4 159 226 199 160
4 162 227 198 163
4 194 218 76 187
4 195 219 77 186
4 164 144 232 203
4 165 145 233 202
4 2 22 178 210
4 8 52 180 211
4 228 154 200 170
4 229 157 201 172
4 50 51 80 182
4 20 21 81 183
4 102 103 208 95
4 100 101 209 93
4 95 198 111 91
4 93 199 110 90
4 82 96 237 84
4 83 97 236 85
4 230 168 224 104
4 231 169 225 105
4 170 200 212 98
4 172 201 213 99
4 27 140 188 26
4 57 139 189 56
4 163 198 95 208
4 160 199 93 209
4 91 111 206 85
4 90 110 207 84
4 39 98 212 173
4 69 99 213 171
4 114 126 235 192
4 117 123 234 193
4 77 219 130 149
4 76 218 129 148
4 133 216 86 175
4 136 217 87 176
4 167 129 218 194
4 166 130 219 195
4 109 88 189 119
4 107 89 188 118
4 212 214 72 173
4 213 215 73 171
4 124 175 234 123
4 127 176 235 126
4 49 50 182 143
4 19 20 183 142
4 40 41 228 170
4 70 71 229 172
4 152 104 224 190
4 153 105 225 191
4 212 200 216 133
4 213 201 217 136
4 36 168 230 35
4 66 169 231 65
4 214 220 177 72
4 215 221 174 73
4 196 146 236 97
4 197 147 237 96
4 86 216 200 154
4 87 217 201 157
4 168 177 220 224
4 169 174 221 225
4 108 184 236 146
4 106 185 237 147
4 153 202 233 79
4 152 203 232 78
4 158 110 199 226
4 161 111 198 227
4 81 206 239 183
4 80 207 238 182
4 48 143 182 238
4 18 142 183 239
4 18 1 19 142
4 27 4 28 140
4 48 7 49 143
4 57 10 58 139
CELL_DATA 203
SCALARS Von_mises double 1
LOOKUP_TABLE default
29607816.292291503 12705551.844451588 12788328.880144347 10443646.845253661 10400550.81668908 35041466.6311128 35036544.3037589 4050660.219652129 4006837.761093942 5749136.4674139125 5859133.577092751 9178737.947677758 8879788.563842682 19058308.20686814 19005257.54807186 7650143.521824215 7838843.922058858 9741196.645618245 9440929.678689733 9759337.952294255 9441457.46089684 22243060.715190332 22230602.93151519 22377646.112257738 22379535.92156993 10331347.335820336 10026158.851467624 9001515.650172131 9255661.100640846 6637633.899889467 6515659.821405976 10763734.19008747 10630909.827151258 11418413.239376782 11502205.909629723 1857703.7109820088 1899424.3968507617 7952992.567079088 8149632.518987401 12692885.015353978 12545537.042781457 3269916.7509511244 3212663.313343231 12562530.649094386 12717923.478352003 10407116.864250937 9888566.90188755 10243452.685790788 10214172.6565321 10647232.106107565 10532108.79476152 29707714.524761125 29706236.091763552 22897723.819029946 22884229.669192713 11087371.51162347 11043761.388045654 9077238.60341093 8931787.373441106 14673510.324674075 14533388.155290423 10348680.079965688 10314852.717898192 11983815.716889832 11932072.6382418 10092203.21467624 8495886.506858913 9966636.415993286 9905213.36360008 16510436.645169578 16433440.83977892 10090655.779390002 8529384.147550955 10715779.719703699 10752606.53638957 10038000.379354123 8680094.596758887 10053483.654820375 8686818.108757468 19838294.02929289 19801386.16831532 9790051.33433672 9958818.604720201 9958001.80038653 9793901.33388548 19795746.691195063 19827685.440392304 10346153.149022166 9809291.262365265 10643041.260662144 10575558.250976019 4613243.067250614 4557077.19029322 22175456.229659036 7796706.3862126395 7728511.031963465 22162072.804178767 17078763.363000013 16987137.488650378 13712435.52118164 13565112.559520284 13865019.38443606 13779858.756742092 15961834.129983244 15961452.234951867 19304796.368851993 19247982.910027236 10000202.94591554 10598479.143083047 10587176.033188578 9999211.813738264 10489521.124796914 10546659.5460782 26521647.214543357 26534596.20308485 27260346.752493054 27260288.108722124 18186067.74789341 18194987.766836196 11208955.74142541 11127242.269439587 29892092.40418313 29889809.251211904 18040706.756135695 18051579.082911316 4070583.5669293124 4030328.9165193597 11496810.215273513 11468438.49286973 11961821.04742957 11978299.702668797 11356299.737326711 11437097.414274713 32689232.823169228 32701453.606225356 9991528.010339972 9830121.50667698 3056997.3145906227 3023445.4702536426 14998284.960029693 14868804.860616747 15433599.020974357 15400489.107042218 20808363.451052815 20840703.955867786 10004798.331825197 9814947.531967267 10096230.172697822 9343467.64000255 691593.6581964575 678651.9833210483 14134541.034885699 14079446.471504088 16723887.662976973 16714939.789394788 10107426.352876216 8774420.818833971 11876058.718834786 11770464.257326754 10023650.961493328 9954868.005336424 10286796.62090273 10274802.527503246 14195097.863034314 14186780.349855507 10287892.39905967 10340776.329540705 10188723.698039055 9125477.077704925 11155540.215394957 11223314.272180475 848785.7235816371 860875.9674156334 10000723.421338513 9119657.153983217 10008853.158100853 9942175.096633703 10210162.098223722 9858456.184695968 10003940.48176787 9116141.117368743 10198918.029400146 9195734.30527196 20276681.004862726 20242747.177262776 9941003.918304807 9873346.632880975 10131921.642659618 9366764.43104124 21050488.087331045 21017702.621988412 10087828.768798893 10125499.846011644 11967322.69087339 11928397.767748963 9289971.094198776 9335021.281227455 1319536.1451677738 1297823.4115813824 520089.59036732186 708482.236774383 511406.6774123937 714829.1096944914
SCALARS Stress double 1
LOOKUP_TABLE default
30474090.536857866 1816412.0595564784 47414.25430656743
11444535.90952264 -1758526.6189791188 1553030.2185596016
11530248.280512726 -1795400.5902097558 1491068.105871783
10226743.545942139 -334025.3609514066 -564479.4734555722
10103286.249860194 -489690.7333454328 -550085.3196552253
35774323.85587872 4793716.974952077 -5674927.23634743
35771683.58736679 4809605.427305119 -5682178.843655301
2782432.396566248 1403614.422630143 -1879826.850892499
2767756.7084215605 1389900.9006736602 -1853766.8565116273
5095336.606961038 -71075.89808870727 -1496986.7037951224
5189164.654288686 -65576.6754741291 -1533778.3410056718
9066968.984750196 -156417.36154006058 -445946.9269492189
8783784.758906584 -144313.86359694248 -368475.1646826299
18104194.08166967 -1160769.8212198406 -2089264.595964382
18074436.70757101 -1109523.1185427606 -2099960.7329886886
7305255.701238075 -281436.91300401685 -1003786.1151286038
7482168.152482325 -271551.4685321339 -1058158.7503308787
9697767.497929 -73729.37400825939 -203118.43607812532
9417925.696080666 -33416.45617320445 -198325.0028441313
9709149.39699722 -88679.25015859042 189939.60116081891
9419577.418799197 -32023.735088630885 191489.48244170344
24634681.33544787 6078668.437318267 476821.2127939468
24630025.818654973 6108865.566344153 484703.68445226114
24129997.218624245 7418861.149207227 3762972.1364520453
24134089.894294087 7465901.847597599 3778553.028735836
10110566.11171694 -415623.57593696826 -214676.55902885617
10205450.835417202 438796.6302719214 -468404.92275870836
8906853.396411058 -142548.79926028327 367543.7199020541
9154381.998442356 -139397.73632443591 435515.3191282954
5973703.9129738035 -250215.73072730086 1507284.8378731268
5871221.206183299 -259712.2544267004 1459486.8853530413
10371928.616496332 -744457.0793474799 -42420.361205634494
10533576.28140932 -191015.56963315466 -61780.404774329836
10749090.682223817 -1236898.9134266116 -62591.00920890552
10950276.440306786 -1033103.768024836 -63538.49615631994
1070547.659427634 551277.8516299803 -929382.0044792033
1108003.1686142173 556222.5535737661 -946406.3328195836
7737916.125658223 -182766.1945944652 801480.263435394
7920720.720848694 -175017.71532206476 868292.5413153189
11801121.51647205 -1623411.3618177252 128220.8573084438
11631018.28808163 -1659929.5499677532 126327.89432554804
2390383.4250989975 511046.9464222084 1406988.7239408828
2353940.4752864265 499519.3788108096 1379189.264009232
11455593.591744728 -1843218.0067286205 -831453.0982593971
11616630.656103864 -1848844.4558167958 -796638.9385561227
10163859.801262815 -469760.453464899 -54102.044371947726
10168463.18789985 591946.031610034 -135268.98725957226
9844649.952563563 -595274.1518368244 773859.003315423
9879876.746750034 -489415.41714548564 739925.0134483472
10278471.904674726 -684844.1772906512 263567.6027189804
10434867.2697828 -158243.75776118736 347643.0311533941
29871666.013303764 337209.3226981941 252432.17652408662
29869695.975968037 335951.1557232405 247400.31529952583
24581977.234711263 7350600.541350269 -3945170.810629893
24573532.96625456 7393449.113584018 -3951772.633497806
8491759.50482996 798809.7479896455 4357561.657832981
8485299.885694955 772199.6585101834 4317422.25590688
8745819.385544952 -364857.49485632736 -927865.8659617887
8614378.916540587 -377716.30762379157 -851046.5245312331
13417816.182921186 -2218495.2473879117 -441599.94521326065
13300033.742899418 -2176636.71571021 -462379.55293444084
9642490.933017973 -809502.3927382661 1373151.4116635455
9636775.904691821 -824089.915360617 1279067.7238307975
10901207.544077812 -1473302.7558965317 -1476946.522332993
10832877.490486892 -1447398.520548097 -1554420.5126119836
10012324.316563176 -157851.72065446875 13511.963162455799
9443640.842682285 2441914.491880907 178280.87956618273
8881470.512869067 -851529.6885997901 -2013734.867267145
8854718.626908269 -876700.5877634063 -1930083.6658420302
14996040.557885995 -2181934.870359655 -1846804.6468902493
14939114.145955032 -2129816.182686671 -1873246.9434600745
10009388.088925147 -160513.8769742886 -18918.689395207926
9448341.943852628 2351457.030199566 -236113.22937340956
9600162.820940588 -1027061.4150153876 1979056.7493275162
9603928.589667773 -996815.640567311 2066891.0083035075
9995415.053122425 -84204.53695509993 38209.211197951074
9526512.988849824 2407431.597702858 759011.1921932955
10001220.969395695 -103269.0039463321 -39294.2070690548
9516240.094707072 2286551.6674399213 -691143.8448844583
15033406.489872415 7929554.401510039 -8638768.83392323
15010710.295159096 7872929.379308367 -8621073.322524326
9802354.923242427 50080.22598136442 287134.81642154546
9938514.842586238 -39873.44960596895 45158.840761417814
9933616.396969264 -47841.71423125484 -50116.756337720406
9810618.681131903 59821.73009982629 -291875.5298480973
14938413.731275868 8042340.167106347 8644380.673316618
14941174.591538735 8102244.41601801 8666200.54338409
10129161.131469117 -418093.6060380639 105261.56112293231
10134162.819518507 713109.6149850971 282360.66820243985
10269777.902821258 -687807.5931082751 -299598.95229433867
10425048.467467101 -254110.6994078816 -386051.8815591611
3796874.616772439 402373.63917496987 -1656463.346368188
3762835.3879341455 394734.17184884415 -1626604.5417613296
24608717.887693103 6382880.91471434 -911995.958868658
6701909.24159655 -29838.798740237176 2285619.953482068
6660242.684309893 -41674.97825958295 2242896.0359612773
24603871.76471587 6415732.365541593 -912359.5372077789
15664375.180203695 -2456259.7332982216 775139.2011196626
15604502.919111826 -2399831.9655835214 786331.2131621696
12498100.15727589 -2121368.811163513 521246.8627704913
12367755.921730211 -2088243.9460678517 536419.6133237729
12333735.174818605 -2179526.4604234304 -1681834.455505039
12256465.049329374 -2131394.8705704203 -1731796.852844757
13659945.723163199 -444241.11923622293 -4543140.319373412
13647221.918335488 -404311.13734899566 -4576756.495201689
18548003.537221257 -1104211.608329902 1521679.2843165696
18515848.24433556 -1052771.1206198025 1532637.4391453306
9999125.157435114 -2144.6404377131353 -5941.879867001291
11086597.53660956 1944935.2234138339 1548661.3833779525
11067463.444454957 1912064.8842228989 -1538967.7656858675
9997942.091668839 -2529.878269245971 5503.057345806257
8048710.207200101 559997.6439796389 -4059637.8664407083
8062768.224344728 584235.2771070587 -4106621.438204527
28130120.212801684 3616660.932622675 500325.9897578713
28142950.689536862 3616896.2292022035 505739.07694705686
28877735.62846181 4596574.570596718 -2633948.715140566
28879586.70080334 4600066.646163647 -2631868.1672612396
15223739.692024184 1396510.1629011396 6279083.7039237805
15220145.39538557 1436221.6575028421 6303478.5046659475
10766076.650933255 -765455.9965690699 -549363.7364566352
10587355.903737009 -935769.1334144667 -559890.0964077394
30024343.983380128 290955.7560229627 -492292.974661496
30020520.644548908 287414.9010516837 -488117.11343078676
14973133.004165856 1130766.2859692057 -6242992.602467673
14976052.265871959 1167751.0219502067 -6263705.607318473
885086.0311301734 2049080.7865079774 -2113540.000726466
882661.1906497373 2015612.3922355485 -2096097.1602908734
9847640.76725742 -1088173.8517562554 2786906.8235233254
9852358.430935312 -1122254.4901357964 2716603.6506969277
10408387.352893662 -998411.1757619454 -2790577.0223006867
10392517.233911524 -966901.4328934443 -2857260.4083887227
10551174.494037796 -1223038.8487049076 -1038900.0897197281
10666194.144254118 -1187185.9155606006 -994540.7452503879
33468355.781338256 3565620.299091015 4284736.650599684
33479993.23615234 3566154.8192207534 4287676.134350413
9937428.156835217 -103606.99243256352 112297.45681534013
10159772.899728298 970017.227671306 880250.8699162854
380006.3294791959 1659805.8991952913 1535861.2019935977
377933.41755481536 1628738.6902214964 1523280.8782326104
13485281.477646869 -2627115.652560171 505504.53669400705
13386403.635044435 -2573422.607495716 520953.6250995401
13560506.72497225 -1657361.4518038575 3113793.399664447
13524553.35120233 -1611452.5426035356 3155448.5261830473
21378828.27444653 1851345.0899879043 2007137.3675133435
21393220.72816208 1802499.5142456337 1998108.5826405548
9940319.570843298 -123121.18358905672 -125184.86774618755
10132828.234871976 915757.4341875622 -836577.9750490449
9993037.56202479 -199785.10199899453 110589.13217529676
9872894.983617945 1385346.3387167752 726756.8649190373
636715.8228122586 251985.39170741368 -237936.40426367673
632478.7983171575 238556.3470586536 -226944.76944952633
12528042.97735 -1962385.0829910305 2190706.8534129285
12473003.968363037 -1914326.399749288 2244470.1381808585
14589485.447782453 -546241.3150548122 4418430.099842208
14573303.595472954 -504291.0436710215 4449889.082536989
10020325.44386733 -171299.35920100324 49418.88916510215
9555374.281254455 1969183.261075715 456027.5661941262
11019456.578607863 -1364087.263882399 952210.2303093428
10886116.4442442 -1386707.1875163608 1002909.9085626882
8097576.645529367 -389666.1700469188 -3245285.794575451
8073694.443575119 -416336.26195961784 -3182250.1152271875
10057674.129459566 -404230.9843158692 379626.8446140764
10200535.333992904 -72696.4625337145 507877.3699601707
12071754.772919161 -1230956.697812754 -3623924.1281451033
12044216.483144136 -1191567.230650633 -3671069.774006311
6695638.918248186 2741633.8495032876 -4893859.5412567295
6707111.569485591 2769944.9968735874 -4927881.368354506
10054888.480500888 -262301.55678649835 32110.388923941755
9778098.773251316 1498475.0758413204 152671.7875849931
10573094.326687057 -1011277.1239112694 559983.337070924
10745832.463189177 -826093.8738280197 556887.3224751294
557404.9665279151 -384454.6065959628 -126008.8041792258
555984.8151411398 -397318.5684167666 -133195.5717284278
9985414.771484362 -30378.379329359646 23785.345003565395
9773046.750052106 2195929.688243637 1196455.8962223732
9835873.246701946 -302232.86951609736 -350556.7535007919
9929202.523440644 59792.048016432 -531631.1897245247
10049118.433556665 -304863.1211434349 188044.0084381378
10125293.695028031 657090.0816787241 544379.9594162984
9985857.976944 -35836.98171381281 -27798.849394965375
9765665.692944827 2156413.6004324057 -1175371.876873301
10059270.258345185 -273279.1514637145 -42192.04042581091
9828556.520513237 1453599.976535594 -212008.46841957932
22131219.533833914 4449013.607468588 84240.32025497104
22112696.969586328 4497582.79413492 87331.64004740545
9822170.69728337 -210683.99903544493 279737.82250375435
9916218.492805095 169772.64120366445 518415.66030460584
10013498.956446474 -228842.9270555371 -118021.64450586452
9888311.341346925 1297539.6450617195 -606751.3441307158
21433022.941616014 1506247.9583802128 -2141902.6148597198
21421019.914861057 1556992.856177179 -2145683.848935319
9733038.000813426 -493275.99090786325 -814015.8425417983
9732500.317622125 -534800.3259102945 -878109.5164588821
9763634.75493751 -526102.8820525919 3762746.697705635
9760690.240972074 -556861.7900394476 3709004.755664101
5862542.590780874 2795850.7665443155 4491034.401630136
5869729.4386489 2823864.431395731 4519956.065230541
1179115.7485474267 840684.1567643356 460208.5640562874
1170689.7381717924 832003.2848555173 445578.0463933728
-317760.29647880036 102103.29949009499 -205468.66549910817
-284446.18531455763 113441.55874604477 353977.6083279125
-311168.7070636249 106844.36598696292 -200040.3989881244
-289492.8463171176 110793.55492795496 357223.270338768
SCALARS Strain double 1
LOOKUP_TABLE default
0.00014389022557207172 -3.522026491106193e-05 5.926781788320929e-07
5.7558143727001804e-05 -2.4960997076134183e-05 1.941287773199502e-05
5.80234060460368e-05 -2.526189939597872e-05 1.8638351323397295e-05
4.964880362609404e-05 -1.6356002041990618e-05 -7.055993418194652e-06
4.927977629742222e-05 -1.6926329847612935e-05 -6.876066495690315e-06
0.0001650779267470822 -2.8550866258709326e-05 -7.093659045434288e-05
0.0001650423171114195 -2.8470671388965955e-05 -7.102723554569125e-05
1.1352634950851946e-05 2.735022613751291e-06 -2.3497835636156238e-05
1.1301857876055108e-05 2.6902590776307325e-06 -2.3172085706395344e-05
2.459932392494063e-05 -7.69075423162028e-06 -1.871233379743903e-05
2.5042488735244832e-05 -7.799644575772766e-06 -1.9172229262570898e-05
4.381679900582797e-05 -1.3829365658486155e-05 -5.574336586865238e-06
4.243787941339263e-05 -1.3362736977254412e-05 -4.605939558532874e-06
8.871358186555588e-05 -3.169244252750356e-05 -2.6115807449554775e-05
8.849660405352808e-05 -3.1403144859683e-05 -2.6249509162358613e-05
3.5527340265092694e-05 -1.188948857392038e-05 -1.2547326439107549e-05
3.6363623043470986e-05 -1.2097124587869382e-05 -1.3226984379135983e-05
4.6730222644862875e-05 -1.4341632804744998e-05 -2.5389804509765665e-06
4.532668573525302e-05 -1.3744202716333673e-05 -2.4790625355516406e-06
4.680650563483077e-05 -1.4429923409893063e-05 2.3742450145102366e-06
4.533261797752782e-05 -1.3739889234271106e-05 2.393618530521293e-06
0.00010966865771275185 -6.306422900558137e-06 5.960265159924335e-06
0.00010960272186899868 -6.154529707943929e-06 6.058796055653264e-06
0.0001053093215089523 8.647210750959242e-07 4.703715170565056e-05
0.0001052611506731481 1.084975381295066e-06 4.723191285919795e-05
4.920794800239437e-05 -1.658073754544255e-05 -2.683456987860702e-06
4.8431787722767424e-05 -1.260980105939057e-05 -5.855061534483855e-06
4.3027009789370886e-05 -1.3531753933575001e-05 4.594296498775676e-06
4.421250634297925e-05 -1.3873616999313182e-05 5.4439414891036935e-06
2.9080618423999967e-05 -9.818879349131932e-06 1.8841060473414086e-05
2.8601610012073606e-05 -9.716724116738896e-06 1.824358606691302e-05
5.093877759759892e-05 -1.8538633001424902e-05 -5.302545150704311e-07
5.091769688605417e-05 -1.6111002182961303e-05 -7.722550596791231e-07
5.346230940505674e-05 -2.1450125567758448e-05 -7.82387615111319e-07
5.4135613320741534e-05 -2.076051298133112e-05 -7.942312019539992e-07
4.351751461243462e-06 1.1063151625081256e-06 -1.1617275055990043e-05
4.524694242990805e-06 1.0760653989879854e-06 -1.1830079160244794e-05
3.746512492325271e-05 -1.2039139578326596e-05 1.0018503292942425e-05
3.833281747810247e-05 -1.2265547747964773e-05 1.0853656766441486e-05
5.907761983181427e-05 -2.482571065749683e-05 1.6027607163555475e-06
5.831248631284594e-05 -2.4755937674962703e-05 1.5790986790693506e-06
1.0755141063328534e-05 -9.90711928401398e-07 1.7587359049261036e-05
1.0596560873284536e-05 -9.935709796880694e-07 1.72398658001154e-05
5.773345670078516e-05 -2.538411578967326e-05 -1.0393163728242463e-05
5.8515788427158194e-05 -2.564343102234594e-05 -9.957986731951534e-06
4.954224969856868e-05 -1.691787689347954e-05 -6.762755546493465e-07
4.803307393469636e-05 -1.1820158292115008e-05 -1.690862340744653e-06
4.818861633708947e-05 -1.706090931541295e-05 9.673237541442788e-06
4.820529505718115e-05 -1.6602780967165846e-05 9.249062668104342e-06
5.040348633587463e-05 -1.811723917640899e-05 3.294595033987255e-06
5.0395867293803636e-05 -1.581107662834629e-05 4.345537889417426e-06
0.0001431274193100688 -4.146293500621604e-05 3.1554022065510827e-06
0.00014311976264063013 -4.146614248589986e-05 3.0925039412440724e-06
0.0001075807551553182 -1.1534917818802724e-07 -4.9314635132873665e-05
0.00010747835688547766 1.0283280628678998e-07 -4.939715791872257e-05
3.96736374059282e-05 -8.407298574323762e-06 5.446952072291227e-05
3.9680961481451435e-05 -8.52591493845338e-06 5.3967778198836e-05
4.2573445355778115e-05 -1.4368285146729867e-05 -1.1598323324522357e-05
4.196006638859483e-05 -1.4240528762432537e-05 -1.0638081556640414e-05
6.77084844093152e-05 -3.0018462030116673e-05 -5.519999315165758e-06
6.708184979621386e-05 -2.9647340570096327e-05 -5.7797444116805115e-06
4.75256810136512e-05 -1.7799277272325278e-05 1.716439264579432e-05
4.751924461201926e-05 -1.786116676330848e-05 1.5988346547884966e-05
5.453460755214795e-05 -2.280608182269171e-05 -1.8461831529162416e-05
5.416873580120828e-05 -2.258298926776041e-05 -1.9430256407649794e-05
4.836384534980537e-05 -1.5199754882804911e-05 1.6889953953069743e-07
4.188012738037506e-05 -1.8806623121335505e-06 2.2285109945772845e-06
4.3927545285812524e-05 -1.6903705973367836e-05 -2.5171685840839307e-05
4.3835234630948516e-05 -1.6986135460749456e-05 -2.4126045823025376e-05
7.524337028362449e-05 -3.211897614291084e-05 -2.3085058086128115e-05
7.489451442673574e-05 -3.178630012727491e-05 -2.341558679325093e-05
4.83535685193146e-05 -1.520831876755689e-05 -2.3648361744009916e-07
4.2033196321119025e-05 -2.3223343892126035e-06 -2.951415367167619e-06
4.7635967526178865e-05 -1.878418394854598e-05 2.4738209366593953e-05
4.761044847037484e-05 -1.864420296859444e-05 2.5836137603793836e-05
4.817632891446613e-05 -1.4821293523518402e-05 4.776151399743884e-07
4.2328286103552726e-05 -2.1659725911158134e-06 9.487639902416192e-06
4.823173880086344e-05 -1.4921323532524234e-05 -4.911775883631848e-07
4.2453243242668725e-05 -2.7323094277509625e-06 -8.639298061055729e-06
6.0839135429900955e-05 1.6440059877636132e-05 -0.00010798461042404039
6.081168981426244e-05 1.620055909019538e-05 -0.00010776341653155407
4.705447526657702e-05 -1.3897241591304636e-05 3.5891852052693187e-06
4.783883114167321e-05 -1.4526095684528082e-05 5.644855095177226e-07
4.782677361172424e-05 -1.4557339583279012e-05 -6.26459454221505e-07
4.708015462549018e-05 -1.3862326318460313e-05 -3.648444123101216e-06
6.021976769780749e-05 1.711930792174802e-05 0.00010805475841645772
6.0146640705448714e-05 1.7403327108444182e-05 0.00010832750679230111
4.9300909679233354e-05 -1.6619432430186536e-05 1.3157695140366538e-06
4.769341314914893e-05 -1.1188169379184881e-05 3.5295083525304985e-06
5.036596240746992e-05 -1.8118946942089678e-05 -3.7449869036792334e-06
5.048693114081474e-05 -1.6257813652153906e-05 -4.825648519489514e-06
1.7673858293365137e-05 -3.541772816619047e-06 -2.070579182960235e-05
1.75212266172091e-05 -3.529405983324036e-06 -2.033255677201662e-05
0.00010910506544845577 -4.8064156326614965e-06 -1.1399949485858227e-05
3.2263754236627987e-05 -9.809671015476934e-06 2.8570249418525847e-05
3.20805056624412e-05 -9.806479728618032e-06 2.8036200449515965e-05
0.00010903438488006437 -4.641486364774839e-06 -1.1404494215097235e-05
7.885217836631328e-05 -3.44017898430737e-05 9.689240013995783e-06
7.848294475378308e-05 -3.404414827556284e-05 9.82914016452712e-06
6.314668654146607e-05 -2.8224994511280192e-05 6.515585784631141e-06
6.247225531514695e-05 -2.787774385859094e-05 6.70524516654716e-06
6.244035150454631e-05 -2.82675337157164e-05 -2.102293069381299e-05
6.199943995432933e-05 -2.7924684545044387e-05 -2.1647460660559463e-05
6.631354836025994e-05 -2.1837619404736457e-05 -5.678925399216766e-05
6.619478490163553e-05 -2.162729669639251e-05 -5.72094561900211e-05
9.076570682557801e-05 -3.206063783411673e-05 1.902099105395712e-05
9.053692106019952e-05 -3.176694997077149e-05 1.9157967989316632e-05
4.807581033445398e-05 -1.4432125902251188e-05 -7.427349833751615e-08
5.0495754661468316e-05 -6.6396347960049724e-06 1.9358267292224405e-05
5.0451172976865804e-05 -6.770068024584556e-06 -1.9237097071073346e-05
4.807067814975777e-05 -1.443227166235528e-05 6.87882168225782e-08
3.788803324041448e-05 -8.916420279713423e-06 -5.0745473330508844e-05
3.792066173659909e-05 -8.820169183636347e-06 -5.133276797755659e-05
0.00013002462467795616 -2.3184495823162652e-05 6.254074871973392e-06
0.00013008597029219332 -2.320187008489835e-05 6.32173846183821e-06
0.00013220559258309038 -1.9551664028566473e-05 -3.292435893925708e-05
0.00013220945532189542 -1.9537545019602664e-05 -3.28983520907655e-05
7.117685886131656e-05 -1.5243325695702482e-05 7.848854629904726e-05
7.110230239487844e-05 -1.5047220966888599e-05 7.879348130832435e-05
5.286400697069218e-05 -1.9208072076197336e-05 -6.867046705707938e-06
5.225041655654494e-05 -1.9769114925651776e-05 -6.998626205096742e-06
0.00014392815988737136 -4.190551653361094e-05 -6.1536621832687e-06
0.00014391488545304523 -4.191702544381245e-05 -6.101463917884836e-06
7.035530345372642e-05 -1.615948853500265e-05 -7.803740753084591e-05
7.031599499657163e-05 -1.5985887777939335e-05 -7.829632009148092e-05
1.2998163229700975e-06 8.574783544081373e-06 -2.6419250009080826e-05
1.3364301585532344e-06 8.417375168464555e-06 -2.620121450363591e-05
4.891390828261681e-05 -1.9434933086218663e-05 3.4836335294041565e-05
4.898574412488487e-05 -1.9605586631809572e-05 3.39575456337116e-05
5.148033993087618e-05 -1.981215087322137e-05 -3.488221277875858e-05
5.1358594537401724e-05 -1.9637772130129333e-05 -3.571575510485903e-05
5.249079879158303e-05 -2.109803460055888e-05 -1.2986251121496602e-05
5.299206691789567e-05 -2.1091558455946328e-05 -1.243175931562985e-05
0.0001557628350558219 -3.112926170822338e-05 5.3559208132496054e-05
0.00015581801341531788 -3.1143476690504564e-05 5.3595951679380156e-05
4.792553007002397e-05 -1.4830939612899656e-05 1.4037182101917515e-06
4.7445998708783205e-05 -9.989974241572998e-06 1.1003135873953569e-05
-5.669973090355365e-07 7.4317500016900624e-06 1.9198265024919977e-05
-5.321547572674689e-07 7.285378196899289e-06 1.904101097790763e-05
6.862219314141789e-05 -3.208028892237612e-05 6.318806708675089e-06
6.806937700621709e-05 -3.167953700965888e-05 6.511920313744251e-06
6.758516904092984e-05 -2.7526507063920827e-05 3.8922417495805584e-05
6.734610150953552e-05 -2.7253935326751127e-05 3.9443106577288093e-05
0.00010011261897812577 -2.193415092474065e-05 2.5089217093916794e-05
0.00010025226381677114 -2.2189743770206693e-05 2.497635728300693e-05
4.796757656692315e-05 -1.4928928148279069e-05 -1.5648108468273445e-06
4.739471636834475e-05 -1.021197613593284e-05 -1.0457224688113062e-05
4.8331601406848504e-05 -1.5373540243300152e-05 1.3823641521912095e-06
4.5467745586552455e-05 -7.579433444079847e-06 9.084460811487968e-06
2.6976932947117047e-06 2.9312810030642287e-07 -2.974205053295959e-06
2.6966917990363533e-06 2.3467647867070397e-07 -2.8368096181190793e-06
6.306133895311206e-05 -2.7503836424019375e-05 2.73838356676616e-05
6.272741292446068e-05 -2.7193401876241346e-05 2.8055876727260728e-05
7.092960501105239e-05 -2.366868725668052e-05 5.523037624802762e-05
7.079130244506855e-05 -2.3443664049581286e-05 5.562361353171236e-05
4.842170794051745e-05 -1.5275947078659626e-05 6.177361145637768e-07
4.309913126409491e-05 -4.314562612022219e-06 5.700344577426577e-06
5.494559018159897e-05 -2.2451558833965186e-05 1.1902627878866789e-05
5.433715673316879e-05 -2.2367990965334718e-05 1.2536373857033598e-05
3.9492675464151165e-05 -1.355259213320062e-05 -4.0566072432193135e-05
3.941632366424522e-05 -1.3646368245346894e-05 -3.9778126440339845e-05
4.8937228003626575e-05 -1.6449678957469902e-05 4.7453355576759546e-06
4.91458859266972e-05 -1.5061812801594163e-05 6.348467124502133e-06
5.9812700876264357e-05 -2.3329245815810103e-05 -4.529905160181379e-05
5.9623493520862145e-05 -2.310015469035516e-05 -4.588837217507888e-05
2.8236292131717304e-05 3.523760452061692e-06 -6.117324426570912e-05
2.8250615723189976e-05 3.643324644364953e-06 -6.159851710443133e-05
4.8719129555465564e-05 -1.57633081775806e-05 4.013798615492719e-07
4.4848828127398654e-05 -6.89881998141382e-06 1.9083973448124138e-06
5.229075703779058e-05 -2.0111564528448976e-05 6.9997917133865505e-06
5.28541376218153e-05 -1.947040198454218e-05 6.961091530939118e-06
3.2343334062822305e-06 -2.6522889257420063e-06 -1.5751100522403227e-06
3.2460595464719703e-06 -2.712086600764945e-06 -1.6649446466053472e-06
4.805061675616909e-05 -1.4548090436416677e-05 2.973168125445675e-07
4.381859540182219e-05 -3.5383862344807443e-06 1.4955698702779663e-05
4.772376494017682e-05 -1.563939828618597e-05 -4.381959418759899e-06
4.765031206267171e-05 -1.4033503408729622e-05 -6.645389871556558e-06
4.875277581682546e-05 -1.5959608900050163e-05 2.3505501054767226e-06
4.7731570531367376e-05 -1.1444702052065795e-05 6.804749492703731e-06
4.8060620535856454e-05 -1.4574972955754868e-05 -3.4748561743706713e-07
4.384010390776493e-05 -3.717721670437703e-06 -1.4692148460916266e-05
4.87560288643476e-05 -1.582240494695803e-05 -5.274005053226365e-07
4.515613715169499e-05 -7.187341248165272e-06 -2.6501058552447417e-06
9.998324736342951e-05 -1.0530539676353777e-05 1.0530040031871372e-06
9.982414486223967e-05 -1.0270318734331625e-05 1.0916455005925683e-06
4.752584565862502e-05 -1.5179496193367576e-05 3.4967227812969285e-06
4.742926298290383e-05 -1.3486023589605117e-05 6.480195753807573e-06
4.847188382001508e-05 -1.55427529518725e-05 -1.4752705563233061e-06
4.566850696071351e-05 -8.023816141069029e-06 -7.584391801633945e-06
0.00010087090651010555 -2.3671437135118228e-05 -2.6773782685746495e-05
0.00010074000989426878 -2.341015922250548e-05 -2.6821048111691486e-05
4.750490768310474e-05 -1.6409554765153325e-05 -1.0175198031772477e-05
4.7562213535553914e-05 -1.6608415486523713e-05 -1.0976368955736026e-05
4.7699353940160036e-05 -1.66115062910281e-05 4.703433372132044e-05
4.7729561432614954e-05 -1.6755138761207065e-05 4.636255944580125e-05
2.415282385008452e-05 4.985999948606026e-06 5.613793002037669e-05
2.4146971678991255e-05 5.110315383658947e-06 5.649945081538175e-05
4.456300488067913e-06 2.341103039423595e-06 5.752607050703593e-06
4.4283113111304664e-06 2.311520977903748e-06 5.569725579917161e-06
-1.6749581073357158e-06 9.491893674698804e-07 -2.5683583187388516e-06
-1.531147369896015e-06 9.556510304827504e-07 4.424720104098907e-06
-1.6501058502870856e-06 9.624758562790887e-07 -2.500504987351555e-06
-1.5515909269014622e-06 9.501990808802417e-07 4.465290879234599e-06
POINT_DATA 240
VECTORS Displacement float
0.0 0.0 0
3.6747233229311444e-06 -2.647793525014579e-07 0
7.431624946208861e-06 -2.200117807706613e-08 0
1.5489853601265725e-05 -6.481997848696105e-08 0
1.9229428490666568e-05 -3.0071588074845387e-07 0
2.2951327862360217e-05 6.787428751182066e-07 0
2.2953913545703927e-05 -7.820377643920752e-07 0
1.9239239988288553e-05 2.240996910885492e-07 0
1.5474181951879244e-05 -2.331123170691292e-08 0
7.415143694973285e-06 1.2920338961297526e-08 0
3.682273337648685e-06 2.443470563257199e-07 0
0.0 0.0 0
8.659961299929376e-07 4.817183149547428e-07 0
1.575584220375193e-06 6.902987747096021e-07 0
2.2511576792424243e-06 8.314133556605156e-07 0
2.87986230875178e-06 9.485816157651907e-07 0
3.3850359994480538e-06 1.0281269258363206e-06 0
3.6747120845380344e-06 1.012404397473097e-06 0
3.7106918710057824e-06 5.735785060354613e-07 0
4.129861781365801e-06 -2.9365680221171614e-07 0
4.7055600524617785e-06 -3.682299779034938e-07 0
5.5506134347505755e-06 -3.820112518085991e-07 0
9.66824582673832e-06 5.705687787360298e-07 0
1.1445830895780622e-05 6.53380788183401e-07 0
1.3183815897819108e-05 5.668594269131246e-07 0
1.7353093914585647e-05 -4.1291526273141225e-07 0
1.8201500220069607e-05 -4.0162808917477173e-07 0
1.877002921839276e-05 -3.2967364374961023e-07 0
1.916871177839576e-05 5.238864814234998e-07 0
1.923137842842811e-05 9.407930274353803e-07 0
1.9531233042665934e-05 9.87423918803961e-07 0
2.006464396044318e-05 8.973314647248056e-07 0
2.0729669272953356e-05 8.084341373866482e-07 0
2.1450513894863898e-05 7.440188759113079e-07 0
2.219913496414136e-05 7.034116755943555e-07 0
2.297009026767098e-05 4.99269404024364e-07 0
2.2982497488781125e-05 3.1982948342181653e-07 0
2.298704127842772e-05 1.3623083480101767e-07 0
2.2988064230185946e-05 -5.159324931878261e-08 0
2.298819552975846e-05 -2.39562836850632e-07 0
2.298398176110607e-05 -4.2334896942600215e-07 0
2.2972151531941115e-05 -6.02613305804098e-07 0
2.2201654180899528e-05 -8.059953713549598e-07 0
2.1452835967504344e-05 -8.449654283512782e-07 0
2.073061676451588e-05 -9.10607025656318e-07 0
2.0067937872158807e-05 -9.980176612672974e-07 0
1.9542422022552958e-05 -1.070002055198106e-06 0
1.924361925622548e-05 -1.0537080800397896e-06 0
1.9203950693618073e-05 -6.155562136802813e-07 0
1.8782983729767212e-05 2.531495387156612e-07 0
1.8205295849286912e-05 3.2732705035053495e-07 0
1.7357745869596432e-05 3.397685157795884e-07 0
1.3236860570221673e-05 -6.1874425922142e-07 0
1.1459682990881966e-05 -7.018122451865857e-07 0
9.721459482438446e-06 -6.153919129573588e-07 0
5.554056057175634e-06 3.581502955033204e-07 0
4.707898792536266e-06 3.4548765837459157e-07 0
4.140957481888156e-06 2.732566835086217e-07 0
3.7433866197423967e-06 -5.794972856724537e-07 0
3.684283114317826e-06 -9.97889614353571e-07 0
3.3938971435882366e-06 -1.0446505776190298e-06 0
2.8806828521224927e-06 -9.488922737232091e-07 0
2.250302803789727e-06 -8.303275264274451e-07 0
1.5757373566882661e-06 -6.89280546585429e-07 0
8.647679938802896e-07 -4.80791013062702e-07 0
0.0 0.0 0
0.0 0.0 0
0.0 0.0 0
0.0 0.0 0
0.0 0.0 0
0.0 0.0 0
0.0 0.0 0
2.2505354657741443e-05 -3.781511911678326e-08 0
4.1827580304350026e-07 -3.2871553540671398e-09 0
3.297301599386742e-06 8.418303007162273e-07 0
1.962227376712338e-05 -8.825787413535034e-07 0
3.768293806633773e-06 -9.256109971426413e-07 0
1.914610556981673e-05 8.663742197259129e-07 0
2.031821462088302e-05 6.876033909059977e-07 0
2.6099825343918963e-06 -7.349831981974821e-07 0
1.7226107037092244e-05 -4.0482741210985704e-07 0
5.681852444608061e-06 3.613855195232214e-07 0
1.5885203555718215e-05 -2.6962193208376676e-07 0
7.020475496591872e-06 2.2435117456558176e-07 0
1.654857780364442e-05 -4.015235268046216e-07 0
6.355778297675593e-06 3.557560826628473e-07 0
2.1040023900174983e-05 -6.442766589984636e-07 0
1.883851334236113e-06 5.527873733284855e-07 0
5.77191986722381e-06 -4.101758571135105e-07 0
1.713361576736526e-05 3.5636839359067827e-07 0
1.7341319534110528e-05 -4.029083545030211e-07 0
5.560393728527748e-06 3.569606436110995e-07 0
1.7210904688082376e-05 2.191403472430788e-08 0
1.815018869189075e-05 -3.768445258365704e-07 0
5.689071062406478e-06 -7.182974308731824e-08 0
4.747687410929285e-06 3.311189871096698e-07 0
1.512006524954915e-05 -9.935055024104235e-08 0
7.784628985192998e-06 5.204236141321274e-08 0
2.2505080437772497e-05 -3.298802282349708e-07 0
4.2039338474274214e-07 8.334585271094336e-08 0
1.83168244247317e-05 8.972385848303523e-08 0
1.8889492701432325e-05 -1.022071942459341e-07 0
4.577369989034763e-06 -1.409588690199778e-07 0
4.000252022985706e-06 5.3009977293867307e-08 0
2.165774281171982e-05 5.372133135871846e-07 0
1.2781313843927205e-06 -4.6486309869565795e-07 0
1.5907075336414745e-05 2.057539624235255e-07 0
1.7524771248318973e-05 5.627815995653309e-07 0
6.996518708993231e-06 -2.58199194379487e-07 0
5.3806940677818256e-06 -6.17439043964425e-07 0
1.7902005134737788e-05 -7.077427010860765e-07 0
5.004090347020212e-06 6.647425967964399e-07 0
3.6935692848094527e-06 -3.560932387054676e-07 0
3.502842773235061e-06 -5.5991963167394715e-08 0
3.3613975775107656e-06 2.552603377271961e-07 0
1.919720027651414e-05 3.0171844512506225e-07 0
1.938083409449194e-05 5.294698750687226e-09 0
1.9524166823373557e-05 -3.026136814173526e-07 0
1.834565030471772e-05 6.458778724097864e-07 0
4.56368056920177e-06 -7.017450079122849e-07 0
1.0497424585733437e-05 -2.2588671309622269e-07 0
1.4337855979045452e-05 -1.7504080275210512e-08 0
8.565516990562716e-06 -3.22114842860981e-08 0
2.0186349035196747e-05 -2.2093700255303943e-07 0
2.084999334277167e-05 -1.5507982914414312e-07 0
2.084843345894831e-05 1.0311393594307515e-07 0
2.6879615909616155e-06 1.6903047979185785e-07 0
2.0151957125323207e-06 9.682419892093497e-08 0
2.0187428708412406e-06 -1.433132752343743e-07 0
4.8070895040165825e-06 -7.208473089723058e-07 0
1.8098462693619105e-05 6.647207047282822e-07 0
2.1453762400026194e-05 -1.0490998957997545e-07 0
2.1403187465764888e-05 1.1510945025636841e-07 0
2.1487697090292404e-05 -3.205176801294039e-07 0
1.4119218069305117e-06 4.2696566811789576e-08 0
1.4645581659387165e-06 -1.3325885438104162e-07 0
1.3880301989776371e-06 2.129738915463743e-07 0
2.0057699049387522e-06 -3.1012883541589227e-07 0
2.0873061310440023e-05 2.817401661880018e-07 0
4.147539995393129e-06 -3.923509811257598e-07 0
1.876353128832369e-05 3.366548936790736e-07 0
1.240256619050784e-05 1.77662125721311e-07 0
4.1721542624475315e-06 1.3731048717026566e-07 0
1.874045868252564e-05 -1.7882251473674317e-07 0
1.9717727146527294e-05 3.543399719660887e-07 0
3.1719082492874464e-06 -4.078890292431943e-07 0
7.75239752513795e-06 -6.641482648335653e-08 0
1.5151391691965518e-05 1.614835327223275e-08 0
4.152079121875113e-06 -8.706456715027649e-07 0
1.8759642709656554e-05 8.132271238487713e-07 0
1.9713887326675335e-05 7.96043899603779e-07 0
3.2065545568934934e-06 -8.541633030979787e-07 0
2.089469546464186e-05 5.604491241724747e-07 0
2.027179330586928e-06 -5.808996034573018e-07 0
2.1705453380862123e-05 -6.471910059535509e-07 0
2.023906906110472e-05 -7.740946847186959e-07 0
2.6855944309872996e-06 7.242763489072207e-07 0
1.2364616932712358e-06 4.6390850416205795e-07 0
1.862717940326379e-05 -8.767366078106144e-07 0
1.9086808760894613e-05 -9.18684158729088e-07 0
1.8979253194531302e-05 -6.700153901417037e-07 0
4.2843811231179005e-06 8.352700967873608e-07 0
3.827384456644945e-06 8.787186343091847e-07 0
3.923483768435175e-06 6.281993791786379e-07 0
2.010569090171534e-05 1.46684058795842e-07 0
2.7699438239527797e-06 -1.967026610025695e-07 0
1.7504478189154544e-05 4.144207740072797e-07 0
5.396968848112559e-06 -4.6805761199313463e-07 0
2.2412256934524832e-05 3.308944578447247e-07 0
5.062140907270217e-07 -1.3953518326096454e-07 0
2.2443226500511816e-05 -4.5331061902696735e-07 0
4.0037224539949226e-07 3.5162169173230525e-08 0
4.795721975604762e-07 1.4019547201373055e-07 0
2.252560006505859e-05 -1.6776819246861677e-07 0
4.530257703368079e-07 -6.176101415099885e-08 0
2.089461644450158e-05 -4.1082113733451075e-07 0
1.9868771365139322e-06 3.361230434001992e-07 0
2.2467474506938262e-05 1.4206232898947683e-07 0
1.0257649558626596e-05 1.9010580941533984e-07 0
8.915278226416077e-06 -1.7065442643863945e-08 0
1.2642244080866345e-05 -2.3992119811783663e-07 0
1.3988079215860648e-05 -3.158057270243007e-08 0
1.827517027065026e-05 -2.7100708204414544e-07 0
4.635739621626732e-06 2.288336138463716e-07 0
6.251993502695875e-06 -4.007234406144924e-07 0
1.6650881282421643e-05 3.480550467698933e-07 0
1.910811923599106e-05 5.866011347501027e-07 0
3.7939323320756347e-06 -6.444695499742786e-07 0
1.8175957956949603e-05 2.8066532824736843e-07 0
4.7329532544491785e-06 -3.358055289874999e-07 0
2.1260640353999816e-05 3.1798895692441097e-07 0
1.6214030730218986e-06 -3.163595934513044e-07 0
3.309744382850277e-06 5.65114690265217e-07 0
1.9590137452279654e-05 -6.084693153313072e-07 0
4.554994361015939e-06 -5.562500730470691e-07 0
1.834544248026764e-05 5.006175077090278e-07 0
8.15774640848492e-06 -7.077628883247148e-09 0
1.474633911160464e-05 -4.1725421780637624e-08 0
4.492525407365297e-06 6.552146690353375e-07 0
1.8411863369380326e-05 -6.976036116534734e-07 0
2.1914548208257402e-05 -4.66215406945632e-07 0
9.822913333546166e-07 2.6368027336998005e-07 0
2.4028216672270828e-06 -4.377322830516575e-07 0
2.0487166228262206e-05 3.9571826976973946e-07 0
9.437046166422835e-06 -2.84413663887322e-07 0
1.3466372984470401e-05 2.3591224012521185e-07 0
5.41158471585931e-06 5.914266702484115e-07 0
1.7495728576370287e-05 -6.348567551234225e-07 0
4.02341823521756e-06 3.1085746668354287e-07 0
1.8869890212208092e-05 -3.564285958638277e-07 0
8.74845685642818e-06 2.2386019483658383e-08 0
1.4155785055714776e-05 -7.026434799827643e-08 0
2.2121559657986655e-05 -2.6478208008036e-07 0
7.715248743609497e-07 1.0915960260157614e-07 0
2.200025405616939e-05 -6.184804485937723e-08 0
8.840116459313539e-07 6.6212464454511735e-09 0
2.1512897081153458e-05 -4.666707858723087e-07 0
1.3807512114711997e-06 3.3199412208247525e-07 0
4.3917446074926856e-06 -7.498823421071301e-07 0
1.8514126845922508e-05 6.926911823285105e-07 0
2.1931086779410715e-05 1.333348329645948e-07 0
9.515177881623991e-07 -1.1086234853512779e-07 0
4.148773284430762e-06 -6.960389354786381e-07 0
1.8762628417472564e-05 6.398459082974156e-07 0
2.1813894323421762e-05 3.321289966847694e-07 0
1.0752867604874435e-06 -2.5965909654278966e-07 0
1.8711404155937793e-05 -8.66742657449566e-07 0
4.19897512842424e-06 8.257997022296552e-07 0
2.2333145981580737e-05 -6.25600988052658e-07 0
5.96682043584636e-07 2.5852751077944855e-07 0
2.2313766641869916e-05 5.161449971358967e-07 0
6.125794996289892e-07 -2.60895988721067e-07 0
1.9888430830665397e-05 5.876146016942731e-07 0
3.0173210527537768e-06 -6.433493489281332e-07 0
2.0239824537721375e-05 -5.137227988591716e-07 0
2.652649940286695e-06 4.610160934391025e-07 0
6.9322266446025004e-06 -1.9741756706277774e-08 0
1.5970695221142236e-05 -2.952307955564698e-08 0
1.844789144103521e-05 -6.877143890879791e-07 0
4.463716043425083e-06 6.456549028537661e-07 0