# vtk DataFile Version 2.0
Really cool data
ASCII
DATASET POLYDATA
POINTS 196 float
0.0 0.0 0.0
0.125 0.0 0.0
0.125 0.02962962962962963 0.0
0.175 0.02962962962962963 0.0
0.175 0.0 0.0
0.3 0.0 0.0
0.3 0.1 0.0
0.175 0.1 0.0
0.175 0.07037037037037037 0.0
0.125 0.07037037037037037 0.0
0.125 0.1 0.0
0.0 0.1 0.0
0.01562500001914041 0.0 0.0
0.03125000004302709 0.0 0.0
0.04687500009029187 0.0 0.0
0.06250000012942511 0.0 0.0
0.078125000069625 0.0 0.0
0.09374999998136457 0.0 0.0
0.1093749999689982 0.0 0.0
0.125 0.01481481484257353 0.0
0.1374999999728949 0.02962962962962963 0.0
0.1500000000514996 0.02962962962962964 0.0
0.1624999999674739 0.02962962962962963 0.0
0.175 0.0148148147778815 0.0
0.1906249999454511 0.0 0.0
0.2062499999464675 0.0 0.0
0.2218749999813653 0.0 0.0
0.2375000000284603 0.0 0.0
0.253125000025411 0.0 0.0
0.2687499999464675 0.0 0.0
0.2843749999108921 0.0 0.0
0.2999999999999999 0.01250000000785633 0.0
0.3 0.02500000002464271 0.0
0.3 0.03750000005532045 0.0
0.2999999999999999 0.05000000007786666 0.0
0.3 0.06250000001503192 0.0
0.2999999999999999 0.0749999999440657 0.0
0.3 0.08749999994628305 0.0
0.2843749999369807 0.1 0.0
0.2687499999742503 0.1 0.0
0.253124999894968 0.1 0.0
0.2374999998970008 0.1 0.0
0.2218749999180072 0.09999999999999999 0.0
0.2062499998726061 0.09999999999999999 0.0
0.1906249999261387 0.1 0.0
0.175 0.08518518513910657 0.0
0.1624999999105533 0.07037037037037037 0.0
0.1499999998834483 0.07037037037037037 0.0
0.1374999998590537 0.07037037037037037 0.0
0.125 0.08518518518315231 0.0
0.1093749999923767 0.1 0.0
0.09374999993596433 0.1 0.0
0.07812499987955196 0.1 0.0
0.06249999985295514 0.1 0.0
0.04687499989276568 0.1 0.0
0.03124999993257619 0.09999999999999999 0.0
0.0156249999764525 0.09999999999999999 0.0
0.0 0.08749999998398685 0.0
0.0 0.07499999993815812 0.0
0.0 0.06249999990588191 0.0
0.0 0.04999999987631621 0.0
0.0 0.03749999991857893 0.0
0.0 0.0249999999459339 0.0
0.0 0.01249999997735459 0.0
0.2874139742611299 0.04654212294441144 0.0
0.01135917619714601 0.05611948072782853 0.0
0.07388256427060277 0.01733795439447201 0.0
0.2306633575137298 0.08703491391462294 0.0
0.2499272893575195 0.0139564454907595 0.0
0.05808637989815345 0.08480078490554809 0.0
0.08894112172197291 0.08285788084624775 0.0
0.217998394070053 0.01376202134307239 0.0
0.2589966161240901 0.08726441712087142 0.0
0.04165248099189234 0.01421565165174534 0.0
0.2884156822317973 0.06865627775563427 0.0
0.01215305273959981 0.03615692273704506 0.0
0.1309524564042426 0.06107833952157012 0.0
0.1190428637019948 0.059947125043168 0.0
0.1607726244958016 0.03881571656341316 0.0
0.09758653964172005 0.01300162158276096 0.0
0.2022102622489614 0.08506165487239759 0.0
0.2779928254555765 0.01669433421798987 0.0
0.02856622394705872 0.08704082389041803 0.0
0.1127483530493636 0.065394098671011 0.0
0.1034315295213131 0.06105102889053587 0.0
0.1865755120762103 0.02319985672529074 0.0
0.1827196080842309 0.03859001444312161 0.0
0.1717035564875437 0.04480367933540345 0.0
0.1874664335440886 0.04916127479371528 0.0
0.2010268456390499 0.04229191003898217 0.0
0.2056508127457018 0.05296154242551469 0.0
0.2140453105801881 0.04718619620592053 0.0
0.2130155803218478 0.06517102277096605 0.0
0.2238719227775294 0.05004317676758128 0.0
0.2225446429793312 0.03884368512310991 0.0
0.2382462908749233 0.04268512200831974 0.0
0.2320767717817073 0.06158187843671627 0.0
0.2442391776055987 0.05396829238219797 0.0
0.1122489093723927 0.05082038571199414 0.0
0.09732878421657666 0.05098304742209968 0.0
0.09121708753620099 0.06619051600258485 0.0
0.08511127313704304 0.05257780272326258 0.0
0.07399741059052038 0.06409764392225933 0.0
0.0713372130070326 0.04494854748637316 0.0
0.0642542148794576 0.05647031055624904 0.0
0.05318106299681744 0.05017984889960089 0.0
0.0486219881203833 0.05897762347752307 0.0
0.03904496174843202 0.04445013963658217 0.0
0.03809497397482769 0.05947295890897793 0.0
0.2475589661741823 0.03763074674812773 0.0
0.2578932035551629 0.04466619586129544 0.0
0.261928502682493 0.06107936904156862 0.0
0.08810187155130156 0.0374552246982607 0.0
0.04803599658138414 0.03183977461115117 0.0
0.03312712255462524 0.03506593300130946 0.0
0.2617391523803741 0.02854767791363072 0.0
0.1372451231438387 0.0404597479873632 0.0
0.1501976371406451 0.05985801295598357 0.0
0.06730629399902867 0.07155538808547092 0.0
0.04017609467200323 0.07244701000768913 0.0
0.2741912756288143 0.04488829478501258 0.0
0.1922847645331659 0.06066099235990049 0.0
0.02397892850703056 0.04689200865895134 0.0
0.2025616818821856 0.01337865676722934 0.0
0.2879435703364033 0.03363656733135085 0.0
0.2751175254041276 0.05927266508614974 0.0
0.2342657576985598 0.01402764730855211 0.0
0.2312528444354571 0.03005123153299771 0.0
0.2647495078237621 0.01454557724669463 0.0
0.08453106611011599 0.01352140700807485 0.0
0.07983949901205938 0.02553586684369104 0.0
0.06608535943693934 0.02650512063298387 0.0
0.2494595033407772 0.0659686979378716 0.0
0.09958628249920881 0.08692725376722099 0.0
0.05454815086309497 0.01891642242845995 0.0
0.112349162388599 0.02643502358499202 0.0
0.1879242261766209 0.07648903909961785 0.0
0.197852631786964 0.07212496207312162 0.0
0.1743369513934087 0.05535532899952579 0.0
0.0945834139093136 0.07448600392987023 0.0
0.2729355613616089 0.08786300424786678 0.0
0.2455037858035254 0.08656832038430752 0.0
0.02797671393686544 0.012558140549156 0.0
0.2624066103923192 0.07451743984281511 0.0
0.1610017051784752 0.04812856619740982 0.0
0.02602931416736595 0.0743302097190771 0.0
0.2239812268758868 0.0680802890472567 0.0
0.1495057913933724 0.03961069500414535 0.0
0.1388955199393627 0.06064529715808416 0.0
0.04351268662723737 0.08600345693571225 0.0
0.1126090115688554 0.03576358523405798 0.0
0.01277611435732261 0.07548493905606815 0.0
0.2880044193616169 0.07992416921654626 0.0
0.01171647723433638 0.04781221320580679 0.0
0.01285460828672366 0.02431663751370819 0.0
0.2878381132164246 0.05970946355427269 0.0
0.0709446677963333 0.08137370011384316 0.0
0.05578154310454682 0.06866996025363063 0.0
0.2148206381311431 0.02719288585806468 0.0
0.2380770224371695 0.07233747894465471 0.0
0.1383716861448334 0.05089146588866339 0.0
0.1497762981728079 0.04964019901185155 0.0
0.2894072810841694 0.02062744648279394 0.0
0.1279269891402086 0.05404471271518882 0.0
0.1000342068351339 0.02580036261398087 0.0
0.2780334156818422 0.07411402267897868 0.0
0.01422223615416721 0.08746754972411604 0.0
0.2152785866897227 0.08190003650030904 0.0
0.02414573639175896 0.03559868652776332 0.0
0.02171655306602278 0.06068856517035426 0.0
0.2480582651844381 0.0278880460471129 0.0
0.01179465912773776 0.06698525417185444 0.0
0.1619503643793878 0.05858114013889971 0.0
0.02537836078162595 0.02455426039842853 0.0
0.08812952755165546 0.02566330433311753 0.0
0.08132193639963681 0.07393582345483268 0.0
0.2752181894720435 0.03091357594690226 0.0
0.168999418220744 0.03811526363673338 0.0
0.1122532701499002 0.08706660414782508 0.0
0.2134605662922164 0.03881901068043894 0.0
0.1970756439566204 0.02883872121734967 0.0
0.1111034727992827 0.01361935972355539 0.0
0.1887479601027381 0.08634259927638216 0.0
0.1885075835196294 0.01339676149571941 0.0
0.03687717665964737 0.0268459187698876 0.0
0.07657176178162745 0.03353955754862593 0.0
0.2527208328078689 0.07496688222987022 0.0
0.1226590498656584 0.04183941063676155 0.0
0.0594087265360928 0.03835614031705712 0.0
0.2917151112144839 0.01194876710495031 0.0
0.2865078889189886 0.08833090057160964 0.0
0.01408203210128975 0.01229715540093586 0.0
0.1024709158896907 0.07479997622755383 0.0
0.1022573228988502 0.04051159824835857 0.0
0.2270575454223631 0.07769773005554838 0.0
0.112910886733499 0.07423780429193115 0.0
POLYGONS 163 815
4 157 118 156 69
4 162 124 176 81
4 192 139 100 84
4 153 122 169 65
4 149 119 157 69
4 165 140 72 143
4 82 145 119 149
4 58 151 166 57
4 120 64 155 125
4 151 171 169 145
4 154 173 168 75
4 92 137 121 90
4 57 166 56 11
4 8 121 137 136
4 8 138 88 121
4 179 89 180 158
4 64 120 176 124
4 73 14 15 134
4 113 184 73 134
4 133 51 52 70
4 123 25 26 71
4 128 29 30 81
4 120 125 111 110
4 107 108 169 122
4 132 97 110 111
4 80 167 42 43
4 140 39 40 72
4 142 13 14 73
4 108 107 105 106
4 68 28 29 128
4 185 131 66 130
4 126 27 28 68
4 149 69 53 54
4 71 26 27 126
4 71 158 180 123
4 79 129 16 17
4 110 97 95 109
4 142 73 184 173
4 72 40 41 141
4 15 66 131 134
4 111 125 165 143
4 21 147 116 20
4 48 148 117 47
4 129 66 15 16
4 141 41 42 67
4 147 21 22 78
4 148 48 9 76
4 127 95 93 94
4 80 137 92 167
4 82 149 54 55
4 97 96 93 95
4 115 170 68 128
4 69 156 52 53
4 175 70 52 156
4 49 10 50 178
4 174 112 185 130
4 96 146 92 93
4 108 106 157 119
4 102 118 157 104
4 138 87 86 88
4 127 158 71 126
4 104 103 101 102
4 194 159 141 67
4 124 33 34 64
4 134 131 188 113
4 93 92 90 91
4 121 88 89 90
4 115 128 81 176
4 105 104 157 106
4 97 132 159 96
4 70 175 100 139
4 84 100 101 99
4 98 77 83 84
4 33 124 162 32
4 60 61 75 153
4 36 74 155 35
4 35 155 64 34
4 59 60 153 65
4 122 153 75 168
4 194 146 96 159
4 61 62 154 75
4 180 85 183 123
4 101 100 175 102
4 138 8 46 172
4 86 87 177 3
4 132 186 141 159
4 18 1 19 181
4 44 7 45 182
4 95 127 170 109
4 24 183 23 4
4 84 83 195 192
4 90 89 179 91
4 162 81 30 189
4 13 142 191 12
4 39 140 190 38
4 107 113 188 105
4 151 58 59 171
4 144 161 147 78
4 116 147 161 160
4 117 148 160 161
4 66 129 174 130
4 161 144 172 117
4 155 74 165 125
4 173 154 191 142
4 148 76 163 160
4 195 178 133 192
4 164 174 129 79
4 9 77 163 76
4 25 123 183 24
4 164 79 181 135
4 137 80 182 136
4 107 122 168 114
4 55 56 166 82
4 17 18 181 79
4 43 44 182 80
4 38 190 37 6
4 12 191 63 0
4 119 145 169 108
4 30 5 31 189
4 87 138 172 144
4 127 94 179 158
4 51 133 178 50
4 88 86 180 89
4 20 116 187 2
4 126 68 170 127
4 135 2 187 150
4 78 177 87 144
4 47 117 172 46
4 156 118 102 175
4 84 99 193 98
4 145 82 166 151
4 110 115 176 120
4 110 109 170 115
4 70 139 192 133
4 190 140 165 152
4 3 177 78 22
4 77 98 187 163
4 93 91 179 94
4 101 112 193 99
4 36 152 165 74
4 92 146 194 167
4 42 167 194 67
4 107 114 184 113
4 193 150 187 98
4 169 171 59 65
4 2 135 181 19
4 8 136 182 45
4 3 23 183 85
4 3 85 180 86
4 112 101 103 185
4 131 185 103 188
4 141 186 143 72
4 104 105 188 103
4 111 143 186 132
4 36 37 190 152
4 62 63 191 154
4 77 9 195 83
4 184 114 168 173
4 160 163 187 116
4 174 164 193 112
4 32 162 189 31
4 135 150 193 164
4 9 49 178 195
CELL_DATA 163
SCALARS Von_mises double 1
LOOKUP_TABLE default
10513009.151935345 10061682.317014545 14104992.891303975 9273746.153413732 10172202.941765085 9989751.120577903 9970855.547524076 9146073.838263875 10204238.465282356 9454489.097056985 9460913.288415385 15429889.910785146 10569621.305450877 15783050.52852781 17181882.041833762 14104547.407534191 10174063.88714694 9178344.827486873 10179264.638096891 6210811.397879268 6548706.547872015 9933726.51140028 10502746.983806884 10106148.713510733 11004824.98709513 6836318.458389562 9785202.766383281 9426532.536996543 10964013.263995681 9735264.68313225 11346359.915257033 9242679.418276152 9059278.969052134 8273302.723663062 11290425.035923554 6229966.573880449 11385816.378689883 9951861.199312627 9325932.923129274 9549664.833010375 10295512.090978822 24512245.04371174 24589339.02136234 7914843.0753339045 8450441.207283018 24591534.665352825 29038861.680731643 12653967.495041672 12035433.786632199 9440572.907571295 12550684.7219155 10087865.866881382 8457135.988768877 9265896.771644445 553665.2768372883 12800104.906012889 13084294.772503419 10716608.920921875 11846630.676154207 17697907.118903436 10627020.783021279 13673144.159758478 10060845.14099816 10072731.501422208 10818431.65023609 14920142.042315992 17050150.272692952 10070973.70041108 11680584.08949112 11437083.283642264 12282472.14726945 15881230.623614145 17602184.238869097 10038281.770611502 8565338.61687213 10050452.66785197 10078713.202548642 8535129.404303782 9332880.120953903 11639572.205422498 8731370.30660829 10044119.64437764 13517653.504919184 25724527.309392527 19774054.294415176 10462747.621148316 332262.2200622587 359385.5948428565 11211636.029339822 396390.2302458637 15407707.815110352 15603431.667710004 9981090.799530128 9790383.299280722 9964136.620297978 11163833.084396148 8730275.047817135 23409351.09295168 23275649.771184552 23206454.654769823 10774189.31045478 23303841.443456657 10148691.936987914 9855883.984507246 20742352.48390105 10108962.21791689 10590925.871922998 19752083.61374495 3897502.414752906 10464340.429972287 10311727.861038292 10053788.831454204 9800626.689582184 3764155.176301302 4031960.0210048794 10001383.942212226 10576131.922078492 10097607.36623844 10003014.137950795 19436773.271593742 12685626.892574169 3426909.605049184 17189470.833394017 25701665.980562456 10317950.539127477 16552083.63855174 21266413.859575752 24446895.91953641 11372961.159115255 17490204.770720653 9850039.89062893 10395538.694280993 10675487.652400646 11226126.140713787 9997088.773728438 29271613.415627122 17608207.206169393 14123280.4904124 15876245.179821307 10042287.50708278 11826623.85877924 9115311.548872313 10465107.423419708 17756089.72885266 8870504.859709775 11102818.105579427 11317161.447117567 10541450.65576229 15820495.790656576 13835940.533304922 12105570.992070645 9953784.761438666 12263103.917691462 10505865.110958474 9991638.834703622 9153822.310385827 16447931.38382161 9988310.384602709 19360813.749013986 14102229.054925323 9994907.339545876 15321397.76611388 10680264.584258944
SCALARS Stress double 1
LOOKUP_TABLE default
9964452.994202005 -781026.3781320485 -973059.6281058227
9990873.740083026 -137680.71253433346 -91989.78976571861
12412085.352667123 -1296784.007463734 -3006300.0025066603
9837492.359932832 1257880.8308244068 -77975.77530812545
9887406.187134523 -444458.4501694783 -611235.6433245777
9889757.433981054 -178887.45552522247 249446.77671007477
9950147.170781119 18415.0767766979 -445505.4202531545
9795966.620653713 2126920.6368639367 -1154867.4945629223
10062596.586895483 -277540.20879848814 16621.8778080199
9920661.537774483 1170796.0882784838 -635648.4826601393
9940846.474917823 1196169.0182311242 618752.4710096032
14165156.908456154 -1470834.4050866475 2193313.9641625555
11051412.788879648 1888115.9095819076 -1514874.750868068
14964774.475916166 369164.8459525575 3191049.7150446246
18052078.480954032 2753678.759800373 1955028.6773721639
12606675.861182125 -1675163.4062522005 -2315568.093556141
10045969.995564245 -250050.44838684218 -71968.27856854211
9045902.05165969 -209274.47854677684 398663.43441416824
9970685.724484831 -338473.9627440948 487672.2342127644
5521102.6590112345 -189516.80753410325 -1528544.5450214306
5930848.868901723 -271595.72339753126 -1417278.1094419842
9912587.331897683 -40597.13414743912 -71796.06729274272
10213301.253239095 -556661.0486731881 17825.14418936979
10274968.363354608 348952.9266354218 -87519.6894572638
10556658.570104975 -837421.052286186 201238.40223899556
6135821.600917966 -265750.2781829199 1569046.8272752205
9752226.856997408 -60622.97243040335 128297.03064939067
9415993.093300099 -15143.462127686169 136344.7575464126
10741868.825037846 -430063.7972180526 -75712.68709546965
9693421.58818413 -71757.70194761865 -193416.25181768238
10355937.464479266 -1190953.0767210547 1606511.514819463
9140208.743319323 -137106.2273223592 -451563.6914355328
8977146.014682662 -124002.2088809473 -342939.44416992145
8020955.615675013 -215197.62846873724 -883064.4225078337
9589809.357329506 -789389.3228948789 -3017505.8886167933
5664277.436321408 -179110.33938009106 1376206.5577052145
10748676.175969377 -1168637.0021572753 -242048.15439346267
9960095.306276076 74812.71124089588 438021.161055974
9258311.387706364 -97766.76476071855 337629.7988221409
9213060.373606637 -424523.0206987325 861053.8040346769
10089511.789258828 -387473.2572853301 215846.81866551735
24744399.278025575 553916.14317574 809189.0121662947
24800875.519285962 491154.03249992826 -705215.031405266
7616984.6438840525 -240132.65921826856 955603.7132291048
8217553.866437947 -249991.01173465274 767019.1086134851
24786800.5968569 448341.63027954247 -650650.3773074935
29425534.478286676 2917818.9605030804 -4271538.494002577
11614065.61031086 -1740319.580506986 -815572.4639280463
10413013.26760422 -990751.4499002448 2893816.6662107627
9422979.070588354 -29225.10046710857 -136186.93266766466
11671407.123874107 -1593434.5845798298 231865.7661064469
9860485.85091357 -377008.11393719725 -474776.52321623964
8135344.311746662 -361093.93355280336 -870116.8034000422
8563226.994335484 -557475.0322863689 -1575163.7766160134
-105282.42718015859 185019.557761372 283871.62851732544
11409469.241412694 -1619124.400254409 2047094.1492735688
11893305.730535183 -1935957.8326776251 995854.3030005537
10450215.823445965 -462185.3928063007 -445400.031727437
11002871.123947972 -1361386.5571838322 -903133.657576029
19083584.155451752 3292252.9852508865 -583606.4191167903
9646795.735454768 -965599.0025713213 -1791236.5363296522
12599050.731977625 -1910174.630898434 -409730.6694392832
9506423.050523248 -696757.4425902191 1116450.2957974197
10008284.577093415 -127591.23043103058 -17424.674833891368
10304061.900088996 -825407.3807461307 747980.7577239061
13701879.62405706 -2108742.419616421 713816.9575641572
16341693.07643554 -1304519.3589328246 460747.9365883042
9954234.017528603 -215049.9515712426 -224226.35407022692
11102108.84036308 -1051453.9268606664 -365291.0581349438
10733113.43855492 -1185944.6965953724 700429.9080535376
10712002.706116429 -1292483.2905246543 -2620211.34711231
14701535.639047632 -1926332.73898019 -1161540.4625157139
17651918.175934512 475628.0888683359 -1462440.963727412
10000766.303869426 -74437.74079100037 -24486.82971316715
9465826.282283206 2286770.3023673603 244956.0703621643
10005862.030545557 -88357.71674549222 28411.530649888104
10010934.596566116 -134199.52313690362 7662.929809817148
9477564.667321343 2410309.914604593 -139613.90148394264
9899020.214114478 1290579.2520069703 271983.7314205477
10727326.622957239 -1279448.3443716408 1296412.5239090896
9550687.38532829 2246390.4634167003 690289.9985267473
7790170.117729856 399520.3531584154 -3792549.888549627
12137727.464900395 -2034279.523574189 -1480169.4319967092
26582073.91153557 4158534.0160998288 4016370.8855085927
21088510.709517337 6123685.663380009 -3555644.521183801
10083687.728054026 -582260.8415855464 725250.6225369924
66051.4750095894 228323.66042832338 -151640.81043620754
39893.26933405881 254243.50545647065 -156065.56038538192
10516380.44245112 -1140202.3736817488 -777959.1780313888
-8890.438849211943 238184.77294661978 180920.444311037
14001384.573141415 -321660.526605565 -3500072.947879343
14420453.990457589 -2102345.55141718 -510213.15943208284
9966302.757849494 -29244.025834787335 -29848.835664938997
9802071.849726815 43463.749778200414 255041.3693682564
9952062.45943061 -23731.071318848302 35285.142363422616
10738826.619278522 -780476.0700740815 325695.09481175337
9570955.235056154 2345055.0693763047 -721029.8452963596
24343425.903493945 2064945.4551956735 -682930.1634762792
24476399.418996107 2729499.0244608424 820545.989883501
24221189.54858322 2256866.0031363126 -693793.8183391012
9567479.328161567 -985174.1787286658 2171811.290962789
24458322.209445707 2575851.611409506 639139.4924103139
10038738.993261274 -214536.22927529982 81585.23782784952
10159278.397158377 851723.6970290062 786336.7524140935
22162891.67624966 4010264.062559779 -1987313.8716561035
7658636.940570428 655797.8218435717 -4005364.901253618
8930940.027263252 -748761.4279756526 2895872.578342739
21107214.45646701 6057412.975982938 -3454136.0592258736
2984277.491301484 481915.8867548969 -1580141.421893679
8136891.722044185 285147.52889236406 3895823.370065847
8122315.525115065 284205.2540885121 3767729.383051946
10260362.14455356 449309.16574591864 265728.2816980664
9816056.778851463 50291.0327082306 -250628.05607452683
2846415.8545074956 508749.62253271654 1555213.574573055
3089985.039800383 541001.9521726412 1641919.495717654
10000198.632484727 -2356.2860282422434 -6811.509620883114
11059893.51131048 1899929.2227482358 1520592.6238202525
10209271.812493872 286304.0749832674 -437199.29875959153
10000467.984274818 -5090.269940065447 561.8786455244964
21168633.37259551 4159506.23644923 377132.4910137313
11364663.398265319 -1751902.4247878909 -1711783.8679218693
2507713.0434820545 594840.971121326 -1482446.1107554913
16755574.499793846 -274583.10975555173 -1830522.427970091
26579538.402712308 4881577.955057977 4473032.44887747
9825241.385639867 -657412.9504678393 -1005535.0691639341
16802675.971436772 2468269.2988520884 3001262.4501318755
22578527.126014605 3806764.5609552795 -2154851.2513174484
24707323.786071256 600083.7826644502 745035.838450661
10436206.13352745 -1231582.7659393693 -1421266.9629672219
16798374.616522748 -1307617.800490371 -124036.53315808544
10149070.450089745 832251.7011189245 -768893.8155870336
10154128.53430588 -456545.43814046565 -197183.21038427902
10277258.042647855 -709140.2038908448 -429382.13315265096
9354946.02068027 -558832.0735735605 -3315154.8937174254
9940890.211325957 -108695.67244760896 96849.1278814456
29628347.749420684 2709295.4226285554 -4160129.2785920477
18972248.963745445 3155237.4366263365 -55248.46595788417
12892364.685715668 -2099891.9706175704 -768519.1924090232
14736152.41632227 -1998415.496759777 697221.4195496503
9992542.199576063 -97706.10770319952 59888.44278986639
10506228.360747106 -1296100.3228848735 2174947.9312718217
8603195.876396216 -394236.5634212327 1357302.2877109025
10354760.43210016 -172395.9631735789 401069.6162700663
17929460.255146686 573987.8373630351 1121755.6920113692
9617598.191023704 1833018.512795899 -390273.47961765586
7358538.465913159 4078924.5457192287 5244100.788849004
6818660.486306129 4529440.610845274 5536331.452736496
6016997.303776518 4663672.7512872275 -5203504.851325679
15000800.428120716 1536773.721084717 -3913874.295427806
12533400.933863748 -2195280.0984187997 819253.954531216
11204955.355600229 -1456762.8451586145 921720.111590993
9718769.661086882 -369186.03937742143 547422.7316302255
11450775.56061463 -1483572.4071131092 157496.03974916635
10188524.029897694 -561659.7326111498 420013.6840153051
9985317.893774213 -12541.130533771988 17211.5111481064
9799669.73582955 2120214.446267227 1160607.312742917
16655568.560032576 2434416.813343597 -3041200.073776171
10153585.45061957 415738.7806013009 489709.8924889725
21054631.787322786 4084873.492239894 536316.185835734
12517148.256518112 -1552286.1881138703 2604744.074373382
9987852.954024296 -14051.39828353411 -11907.326149160628
14025251.802065017 -585912.9061679136 3134574.475079115
6886100.430145527 4139850.2893061214 -5099631.911415648
SCALARS Strain double 1
LOOKUP_TABLE default
4.903250436366163e-05 -1.81267417134262e-05 -1.2163245351322785e-05
4.8231624778092915e-05 -1.5071840550765582e-05 -1.1498723720714825e-06
6.154384882166465e-05 -2.4136584679153228e-05 -3.757875003133326e-05
4.548138514752649e-05 -8.141186909401165e-06 -9.746971913515683e-07
4.8176652510506565e-05 -1.639750147264344e-05 -7.640445541557222e-06
4.780492149345491e-05 -1.512410906595932e-05 3.118084708875935e-06
4.7810685806481284e-05 -1.4262639781046334e-05 -5.56881775316443e-06
4.402831937305064e-05 -3.903218025635468e-06 -1.4435843682036527e-05
4.8778166584303026e-05 -1.5847688388784292e-05 2.0777347260024877e-07
4.600683995812952e-05 -8.679819101220488e-06 -7.945606033251742e-06
4.6067287353117725e-05 -8.586946751174147e-06 7.734405887620039e-06
7.022311168260649e-05 -2.7501834027036026e-05 2.7416424552031944e-05
5.040854815387056e-05 -6.862057341740321e-06 -1.8935934385850852e-05
7.141358183716538e-05 -1.9808978350107173e-05 3.9888121438057806e-05
8.281718679333616e-05 -1.2797811463874212e-05 2.443785846715205e-05
6.302511963008551e-05 -2.6236375791379034e-05 -2.894460116945176e-05
4.865858235615528e-05 -1.5691545418539017e-05 -8.996034821067762e-07
4.379175190011405e-05 -1.4053101413676365e-05 4.983292930177103e-06
4.842417266013491e-05 -1.600807538504589e-05 6.0959029276595546e-06
2.6817104333035895e-05 -8.87426733287247e-06 -1.9106806812767884e-05
2.890542108615857e-05 -9.859857615711769e-06 -1.7715976368024806e-05
4.77152234237592e-05 -1.4492179489022808e-05 -8.97450841159284e-07
4.990528638385121e-05 -1.7406978003100562e-05 2.228143023671224e-07
4.889558887194222e-05 -1.3142007607552696e-05 -1.0939961182157974e-06
5.196098502784054e-05 -1.9252012612104227e-05 2.5154800279874447e-06
2.9882435982561745e-05 -1.0127388261818797e-05 1.9613085340940254e-05
4.6973143022723695e-05 -1.4357168411200124e-05 1.6037128831173836e-06
4.529103909585771e-05 -1.3653564375565943e-05 1.7043094693301576e-06
5.226388444328492e-05 -1.7560694445814456e-05 -9.464085886933706e-07
4.670648509023277e-05 -1.4325885473090661e-05 -2.41770314772103e-06
5.150588167065185e-05 -2.0662184211850167e-05 2.008139393524329e-05
4.414106063228861e-05 -1.3842157934221904e-05 -5.644546142944161e-06
4.333820517955263e-05 -1.3543971217719933e-05 -4.286743052124018e-06
3.887266780872902e-05 -1.260328996716943e-05 -1.103830528134792e-05
4.7243394972105635e-05 -1.7626596779296784e-05 -3.771882360770991e-05
2.7490435279497284e-05 -9.030738318637085e-06 1.720258197131518e-05
5.336186190681039e-05 -2.1121345456481194e-05 -3.0256019299182832e-06
4.777717063896061e-05 -1.4005845580009265e-05 5.4752645131996756e-06
4.46521221977624e-05 -1.3823366255156865e-05 4.2203724852767616e-06
4.490585230680893e-05 -1.5329043907599634e-05 1.0763172550433462e-05
4.906612387713668e-05 -1.6415032663764324e-05 2.6980852333189674e-06
0.00011816454055323487 -3.30259790395766e-05 1.0114862652078683e-05
0.00011852658321892302 -3.340917607348972e-05 -8.815187892565824e-06
3.696646366177661e-05 -1.2140519482612906e-05 1.194504641536381e-05
3.986803447095356e-05 -1.3054121017625177e-05 9.587738857668566e-06
0.00011852066397967807 -3.359470456143042e-05 -8.133129716343669e-06
0.00013726052302949883 -2.8412698956648665e-05 -5.3394231175032205e-05
5.834693021376422e-05 -2.5117977228847333e-05 -1.0194655799100579e-05
5.1491532223914895e-05 -1.9781997260488042e-05 3.6172708327634535e-05
4.534493558042542e-05 -1.3731340488671225e-05 -1.7023366583458084e-06
5.841075720792334e-05 -2.449450346991376e-05 2.898322076330587e-06
4.7949943678340045e-05 -1.603439360197725e-05 -5.934706540202996e-06
3.963304082602165e-05 -1.346969820710001e-05 -1.0876460042500528e-05
4.1973411077025934e-05 -1.5030976589360646e-05 -1.968954720770017e-05
-7.730206466758182e-07 1.0413667592087482e-06 3.5483953564665685e-06
5.718849308408182e-05 -2.4240217176337588e-05 2.5588676865919612e-05
5.997160134778111e-05 -2.6461295922298943e-05 1.2448178787506921e-05
5.090803577542239e-05 -1.729447182615428e-05 -5.567500396592963e-06
5.486195716876502e-05 -2.241465333830877e-05 -1.1289170719700361e-05
8.699955894171386e-05 -1.1696260872041533e-05 -7.295080238959879e-06
4.777151652031809e-05 -1.855595059234496e-05 -2.2390456704120652e-05
6.332741885214978e-05 -2.735523966582558e-05 -5.12163336799104e-06
4.670889559278998e-05 -1.70609824891692e-05 1.3955628697467744e-05
4.8300778587609256e-05 -1.5048445209418535e-05 -2.178084354236421e-07
5.072925054958094e-05 -1.8829932455638604e-05 9.349759471548828e-06
6.891587668241339e-05 -2.9900511090545863e-05 8.922711969551967e-06
8.04473504044009e-05 -2.984147731665138e-05 5.759349207353802e-06
4.816706251442297e-05 -1.5390962292451076e-05 -2.802829425877836e-06
5.489204335779462e-05 -2.10677239373538e-05 -4.566138226686798e-06
5.331200407468045e-05 -2.1182109270008885e-05 8.755373850669221e-06
5.3364171602278014e-05 -2.1663865876728766e-05 -3.275264183890388e-05
7.345882433048889e-05 -3.046535303218499e-05 -1.4519255781446426e-05
8.417898917920196e-05 -2.3172823864961625e-05 -1.828051204659265e-05
4.818796935628235e-05 -1.4782055922845329e-05 -3.060853714145895e-07
4.2210553805639406e-05 -2.658546068834619e-06 3.0619508795270534e-06
4.823254493062117e-05 -1.4856328489947877e-05 3.551441331236013e-07
4.832305025724608e-05 -1.508403799089778e-05 9.578662262271438e-08
4.2088806216057545e-05 -2.0815359884221655e-06 -1.7451737685492826e-06
4.5730030954386465e-05 -8.072725058785445e-06 3.399796642756846e-06
5.341904387629199e-05 -2.1623299669513528e-05 1.620515654886362e-05
4.2676780030304226e-05 -2.9750757316432036e-06 8.62862498158434e-06
3.687650967203044e-05 -9.315051356541064e-06 -4.7406873606870336e-05
6.128851597102236e-05 -2.728652770694379e-05 -1.8502117899958866e-05
0.00012180054666685398 -1.834657767961943e-05 5.020463606885742e-05
9.255483178126602e-05 -9.75324757092264e-07 -4.4445556514797514e-05
4.931906721408505e-05 -1.734311134616228e-05 9.065632781712403e-06
-1.1757803456286804e-08 1.0024433554108012e-06 -1.8955101304525945e-06
-1.749027995330884e-07 1.1647861762319861e-06 -1.9508195048172746e-06
5.220404401228676e-05 -2.0649598588543677e-05 -9.72448972539236e-06
-3.8627822467883614e-07 1.1579418490451126e-06 2.2615055538879624e-06
6.777828236116868e-05 -2.174074951224995e-05 -4.375091184849178e-05
7.236133488405166e-05 -3.090616225266566e-05 -6.377664492901037e-06
4.795709598846121e-05 -1.4515071409565555e-05 -3.731104458117374e-07
4.706265733073729e-05 -1.392864329394156e-05 3.1880171171032046e-06
4.788068163858782e-05 -1.4468027928596306e-05 4.410642795427827e-07
5.275466077067666e-05 -1.9240981037777106e-05 4.071188685146917e-06
4.26319168954003e-05 -2.529959140098756e-06 -9.012873066204496e-06
0.000114057414744881 -2.5183088056983217e-05 -8.536627043453491e-06
0.00011373821976758586 -2.217990769825957e-05 1.0256824873543763e-05
0.00011319293147904966 -2.408409067999353e-05 -8.672422729238764e-06
4.74184210662508e-05 -1.8535663351813154e-05 2.714764113703487e-05
0.00011387291695203298 -2.2892524285693304e-05 7.989243655128923e-06
4.85725954905955e-05 -1.5510374650258085e-05 1.0198154728481188e-06
4.761423696177728e-05 -1.055797991403128e-05 9.82920940517617e-06
0.00010076832912250832 -1.2685593463053463e-05 -2.4841423395701296e-05
3.587450766354499e-05 -7.893236828497868e-06 -5.006706126567022e-05
4.4017156036807446e-05 -1.6480978058435712e-05 3.6198407229284244e-05
9.27403392484237e-05 -1.3209200046017513e-06 -4.317670074032342e-05
1.3652416948437572e-05 -1.9873430799785976e-06 -1.9751767773670986e-05
3.870840126623306e-05 -1.0364999940965823e-05 4.869779212582308e-05
3.8639682446579385e-05 -1.0348506747336575e-05 4.709661728814932e-05
4.868062209052781e-05 -1.263845902701995e-05 3.3216035212258305e-06
4.7120045524225946e-05 -1.391599038916927e-05 -3.132850700931585e-06
1.2950918114171541e-05 -1.6594958356708276e-06 1.9440169682163184e-05
1.4075406029560536e-05 -1.8557382681128561e-06 2.0523993696470675e-05
4.8081276530255775e-05 -1.443469171045029e-05 -8.514387026103893e-08
5.0432282425413515e-05 -6.81749437810052e-06 1.9007407797753153e-05
4.867009899037928e-05 -1.334844936906199e-05 -5.464991234494893e-06
4.808651473681173e-05 -1.4448224352031302e-05 7.023483069056205e-09
9.577298798875358e-05 -1.0534056612160688e-05 4.714156137671641e-06
5.716458714279657e-05 -2.4813949251285995e-05 -2.1397298349023362e-05
1.1198369000700276e-05 -7.57081451554281e-07 -1.853057638444364e-05
8.095167996500245e-05 -2.5486805094681277e-05 -2.288153034962614e-05
0.00012074550488555246 -1.4866747912287096e-05 5.591290561096837e-05
4.818492918644336e-05 -1.7331660414229804e-05 -1.2569188364549176e-05
7.722209222010166e-05 -1.2367949483552613e-05 3.751578062664844e-05
0.00010306008537369242 -1.4263430657928378e-05 -2.6935640641468103e-05
0.00011791970505419194 -3.2750544967100604e-05 9.312947980633262e-06
5.195038924667915e-05 -2.0973291374988486e-05 -1.776583703709027e-05
8.264740363783587e-05 -3.0515048968496133e-05 -1.5504566644760676e-06
4.759324490266379e-05 -1.063687227840384e-05 -9.611172694837922e-06
4.947640464301933e-05 -1.6840307684770337e-05 -2.4647901298034876e-06
5.04326928068034e-05 -1.8232296234063468e-05 -5.367276664408136e-06
4.578170982092471e-05 -1.617940326816174e-05 -4.143943617146783e-05
4.79495140050973e-05 -1.486039776848748e-05 1.21061409851807e-06
0.00013853634193573136 -2.9707735106719473e-05 -5.20016159824006e-05
8.666191217671897e-05 -1.2194409867775467e-05 -6.906058244735521e-07
6.501121286971605e-05 -2.8690391232366692e-05 -9.606489905112789e-06
7.372921666033752e-05 -3.086183279642528e-05 8.715267744370629e-06
4.818199053791839e-05 -1.4882061382577012e-05 7.4860553487333e-07
5.238008873852195e-05 -2.138446553417791e-05 2.7186849140897774e-05
4.193012906453165e-05 -1.4303823684327391e-05 1.6966278596386283e-05
5.003115010121266e-05 -1.5763577369248207e-05 5.013370203375827e-06
8.537146107662395e-05 -2.31002415345239e-05 1.4021946150142114e-05
4.3594676140312186e-05 -5.058946848611596e-06 -4.878418495220697e-06
2.9494524529795154e-05 8.99693752858308e-06 6.555125986061254e-05
2.6249174533906478e-05 1.1941550312276137e-05 6.92041431592062e-05
2.220142056918438e-05 1.3743142116126308e-05 -6.5043810641571e-05
6.990273226824663e-05 -1.4247434650728355e-05 -4.892342869284757e-05
6.342300463167977e-05 -2.863125182008618e-05 1.02406744316402e-05
5.597107792859525e-05 -2.316466082614751e-05 1.1521501394887411e-05
4.725733400432745e-05 -1.5792389123574455e-05 6.842784145377819e-06
5.719157347475271e-05 -2.3648101323545672e-05 1.9687004968645797e-06
4.979337475808192e-05 -1.7395273757598352e-05 5.2501710501913125e-06
4.8024424196799736e-05 -1.4462194705125173e-05 2.1514388935133e-07
4.405579520167973e-05 -3.940800358084797e-06 1.4507591409286464e-05
7.656367075014181e-05 -1.231852766666431e-05 -3.801500092220214e-05
4.8215691425188376e-05 -1.2645850262425822e-05 6.121373656112155e-06
9.533254682524432e-05 -1.0728442519023759e-05 6.703952322946674e-06
6.241747169688595e-05 -2.551649358206396e-05 3.255930092966727e-05
4.803879025725652e-05 -1.4473111944667418e-05 -1.4884157686450787e-07
6.8274161893824e-05 -2.3045617532631825e-05 3.918218093848894e-05
2.7135314150738904e-05 9.971250770492613e-06 -6.374539889269559e-05
POINT_DATA 196
VECTORS Displacement float
0.0 0.0 0
3.819693096639183e-06 -1.768509460693888e-07 0
6.839707062173885e-06 8.215071079075409e-08 0
1.3669590699525271e-05 4.226382933926982e-09 0
1.6728616375153682e-05 -2.682261675311891e-07 0
2.0580972285121348e-05 7.515080175442e-07 0
2.0510198732978704e-05 -7.039084882186122e-07 0
1.664368637882969e-05 1.3660572729249166e-07 0
1.3607679757671028e-05 -1.5838551125956464e-07 0
6.848691633265197e-06 -6.244694029262882e-08 0
3.8148642930776836e-06 1.8277644334838665e-07 0
0.0 0.0 0
8.647118954273965e-07 4.780937790230083e-07 0
1.5752124840542884e-06 6.81261961993933e-07 0
2.2548621162126654e-06 8.121350867590354e-07 0
2.8916432127130277e-06 9.289448607112483e-07 0
3.46045580048472e-06 1.0044322053760052e-06 0
3.809062097834908e-06 1.0126958189206504e-06 0
3.854834293711318e-06 6.655754278235918e-07 0
4.678077037421514e-06 -2.176484993062266e-07 0
8.734825086511258e-06 4.946374402646365e-07 0
1.022599281758633e-05 5.84122863421609e-07 0
1.1707725280006292e-05 4.790362074354065e-07 0
1.5847112452352916e-05 -3.1422856421272344e-07 0
1.6692097255687436e-05 6.015133437608188e-07 0
1.674794095592838e-05 9.608376598515875e-07 0
1.710806028645222e-05 9.755781922620763e-07 0
1.7671626072220953e-05 9.029509512799725e-07 0
1.8349296232388554e-05 8.309599725365566e-07 0
1.9079906886136128e-05 7.847039052386642e-07 0
1.9829484464323306e-05 7.621267179039432e-07 0
2.0588477229541702e-05 5.720824450516176e-07 0
2.0590646012458125e-05 3.919953526378265e-07 0
2.0586793752054535e-05 2.0875057362636104e-07 0
2.0579194327934828e-05 2.314600582629825e-08 0
2.0569257652988696e-05 -1.623925650005296e-07 0
2.0556247314350335e-05 -3.450787200747499e-07 0
2.0535671456343792e-05 -5.245805685829679e-07 0
1.975780441517062e-05 -7.36930208199356e-07 0
1.9008252136252765e-05 -7.819917746021357e-07 0
1.827709432849455e-05 -8.507901967755043e-07 0
1.7600788037670994e-05 -9.444152370930735e-07 0
1.70573052974034e-05 -1.0439111057346486e-06 0
1.6675780240480757e-05 -1.0292639336494462e-06 0
1.6608650164976067e-05 -6.976604850699665e-07 0
1.5791947869920617e-05 1.7981298234297784e-07 0
1.1778957915019553e-05 -5.882137917219227e-07 0
1.0287872897202936e-05 -6.60384755218307e-07 0
8.797594808296725e-06 -5.500261409261567e-07 0
4.671395785239291e-06 2.434385043577077e-07 0
3.863458520534893e-06 -6.614378393051232e-07 0
3.8126579824021697e-06 -9.93370242575579e-07 0
3.427692000943733e-06 -1.0249034672592652e-06 0
2.8961195222286116e-06 -9.218627259624763e-07 0
2.2584097843533412e-06 -8.148992114857281e-07 0
1.5762294974878802e-06 -6.793034735208509e-07 0
8.639755055065482e-07 -4.770771181852474e-07 0
0.0 0.0 0
0.0 0.0 0
0.0 0.0 0
0.0 0.0 0
0.0 0.0 0
0.0 0.0 0
0.0 0.0 0
1.997320955514164e-05 6.753066604169899e-08 0
4.781039434102016e-07 -3.25798055867358e-08 0
3.410924831195176e-06 7.695188858183727e-07 0
1.7290574886047426e-05 -8.208622689851533e-07 0
1.821265838893858e-05 6.463145419436403e-07 0
2.6999386575451298e-06 -6.898172588638545e-07 0
4.046872446645317e-06 -8.512455629433028e-07 0
1.683461745479134e-05 8.329215430058618e-07 0
1.858298044811763e-05 -6.399637047756163e-07 0
1.9464525400977134e-06 5.779991212793486e-07 0
2.000469644931249e-05 -2.6891803691790856e-07 0
5.149334550848583e-07 7.5723256029748e-08 0
8.09838499256823e-06 -7.699588380777142e-08 0
7.0511840060602835e-06 -1.6453367600555317e-07 0
1.151012016136523e-05 1.7928588502664113e-07 0
4.220564903204483e-06 8.848603253421781e-07 0
1.617716915457531e-05 -8.932580798156162e-07 0
1.953422406534844e-05 5.271115756810304e-07 0
1.3357226490815594e-06 -4.751329596104108e-07 0
6.242081279597067e-06 -3.513624140128946e-07 0
5.706853810527654e-06 -3.315892499653031e-07 0
1.5079090501676278e-05 4.6312103725234174e-07 0
1.3678405686551972e-05 1.4909338818150323e-07 0
1.254933887537691e-05 -4.114594401449156e-08 0
1.3872679588509818e-05 -3.339106010628808e-08 0
1.5047413973440028e-05 1.946400226339792e-07 0
1.5355961221766903e-05 -1.3966428913470676e-07 0
1.5957561461652148e-05 4.516362267132979e-08 0
1.6024958011506138e-05 -4.938579236619878e-07 0
1.658923335074684e-05 -3.000104300903345e-08 0
1.6585067622499632e-05 2.7922801080464856e-07 0
1.7468488118525504e-05 1.5641711802307153e-07 0
1.713936898193145e-05 -3.141290579208819e-07 0
1.7785390588347944e-05 -1.0079265681662087e-07 0
6.598525293468479e-06 -1.8174452131217953e-08 0
5.365111336685182e-06 -2.792160517759357e-08 0
4.68961979226687e-06 -4.935262721915499e-07 0
4.487288185705273e-06 -8.03551359492351e-08 0
3.666508915326563e-06 -3.832265272757042e-07 0
3.569503767616432e-06 1.4429914588311508e-07 0
3.1519389280373203e-06 -1.5784528083531526e-07 0
2.5358842741933726e-06 1.3627435450319552e-09 0
2.288405829695988e-06 -1.7325756987494766e-07 0
1.7911045979888508e-06 8.878868398780816e-08 0
1.7453595818009834e-06 -1.509087367745885e-07 0
1.7996595908353002e-05 2.4115394913997737e-07 0
1.8512754459074975e-05 9.608395272142925e-08 0
1.87081366821162e-05 -2.0213176798888426e-07 0
4.569101982230679e-06 3.8808332780857963e-07 0
2.2432407062640926e-06 3.3924947288896517e-07 0
1.4965842973949066e-06 2.1019191670534916e-07 0
1.873961465157711e-05 3.741657722000459e-07 0
8.74284619678926e-06 1.2573156463189016e-07 0
1.0295152892719373e-05 -3.197470539093215e-07 0
3.2246987943644638e-06 -5.112707922708841e-07 0
1.8477567586041024e-06 -3.6588108338828636e-07 0
1.9328652203687225e-05 8.890497179118809e-08 0
1.4442725854639777e-05 -3.5694939505950195e-07 0
1.0533072884735637e-06 3.193754816613894e-08 0
1.6303930314272768e-05 8.30884384427332e-07 0
2.0007119158010106e-05 2.6445691316756895e-07 0
1.9364636485714736e-05 -1.4524950395244107e-07 0
1.750926948618698e-05 7.33075293642368e-07 0
1.719018457852837e-05 4.5978302788177017e-07 0
1.8904632364819187e-05 5.845702914548621e-07 0
3.7897317798866153e-06 8.916096038433204e-07 0
3.835758132290975e-06 6.463934036943658e-07 0
3.141367576917169e-06 5.49235249000015e-07 0
1.8085289584744287e-05 -3.309875816960586e-07 0
4.280181966890734e-06 -8.642681206330661e-07 0
2.547980133761024e-06 6.019410498824359e-07 0
5.6498470173395055e-06 5.218028554578441e-07 0
1.5087309123226548e-05 -5.810520116211206e-07 0
1.5345642161916886e-05 -6.618505855525467e-07 0
1.2764357034877391e-05 -7.822655323026893e-08 0
4.616333039381917e-06 -6.829343451079388e-07 0
1.9238988889911954e-05 -5.9362822220335e-07 0
1.796033393684179e-05 -7.106419641258143e-07 0
1.3106879826437546e-06 4.756573024995465e-07 0
1.8741566191198705e-05 -4.2928363964738443e-07 0
1.1463767767067572e-05 -2.172411159950583e-08 0
1.1620805757006167e-06 -2.800770779787727e-07 0
1.674011579658249e-05 -5.068003887112664e-07 0
1.0175627765450186e-05 2.598040350705921e-07 0
8.96480525460869e-06 -2.2972091552656074e-07 0
2.0324007005458338e-06 -5.954941069795094e-07 0
6.2713022542247936e-06 3.2612941729537365e-07 0
5.488252511822873e-07 -1.520890470018897e-07 0
1.9972085338984348e-05 -4.3738238682881887e-07 0
4.931090717821328e-07 1.0107147351315335e-08 0
5.529886059090622e-07 1.5442480523386555e-07 0
1.9984104066475527e-05 -1.3373442377177097e-07 0
3.3122258052800767e-06 -7.259072424224231e-07 0
2.6384521213104483e-06 -3.9440529406825653e-07 0
1.6355970616932915e-05 5.927624453038623e-07 0
1.7537322734648537e-05 -5.168552066336698e-07 0
8.981126720130385e-06 -3.3665164137020255e-08 0
1.0226610402259294e-05 -2.919878726830323e-08 0
2.008133775369065e-05 4.5827387223099214e-07 0
7.947074659198403e-06 -1.900088418298425e-08 0
4.9262319709774854e-06 6.770976979820954e-07 0
1.949885965892438e-05 -3.7328277855246267e-07 0
6.403821489759859e-07 -2.7017318806611565e-07 0
1.6591163273549423e-05 -8.456677677472961e-07 0
1.064257120452917e-06 1.5376689580012542e-07 0
9.461966869886166e-07 -1.0312537258479412e-07 0
1.806824016699668e-05 4.2459390927418283e-07 0
5.002643170358058e-07 -8.980091834798748e-08 0
1.1659920158462884e-05 -2.0063168746150317e-07 0
1.1333230901890888e-06 2.8805778917162177e-07 0
4.2725440340636465e-06 6.835905369792481e-07 0
3.9258528482415535e-06 -6.514358899879816e-07 0
1.9392697279822508e-05 3.136580185645732e-07 0
1.2434039438152208e-05 2.2309209221793763e-08 0
4.540594955666013e-06 -5.814674182346879e-07 0
1.6013223252752376e-05 2.9849923114010237e-07 0
1.5270868755181496e-05 5.579954024919361e-07 0
4.576838015907972e-06 6.355295501023536e-07 0
1.5885865414071268e-05 -6.665474298772718e-07 0
1.595383676777595e-05 5.537619471222362e-07 0
1.6867310457782149e-06 3.5492346335172955e-07 0
3.7839288140432724e-06 4.4983901326892966e-07 0
1.82684942744899e-05 -4.795604082106253e-07 0
7.42153240306618e-06 6.515756283636063e-08 0
2.858338052383668e-06 2.653894288667959e-07 0
2.0189884870369556e-05 5.838757266231289e-07 0
1.9886309938227378e-05 -5.6302793871436e-07 0
6.347263142217194e-07 2.702429165389217e-07 0
5.032350429700554e-06 -6.668983119811165e-07 0
5.648239300596463e-06 2.947960209230225e-07 0
1.703865563097766e-05 -6.918053648526336e-07 0
5.629935189225354e-06 -5.158576097209166e-07 0